LIGGGHTS data file for RCFX Rung 2

8055 atoms
2 atom types

0.0 0.02 xlo xhi
0.0 0.02 ylo yhi
0.0 0.02 zlo zhi

Atoms

1 1 3100.0 7.54396662474935e-05 0.014013265882013059 0.010942694901964548 0.0028775999059967054 0 0 0
2 1 3100.0 0.0001193279585671566 0.01201762778623637 0.017836591805442545 0.012812805600466675 0 0 0
3 1 3100.0 6.609371482308736e-06 0.0172697061159613 0.018583662646433075 0.0010791072227603065 0 0 0
4 1 3100.0 9.210013000713851e-05 0.00016217104588603083 0.006188845197235124 0.012565715195420081 0 0 0
5 1 3100.0 9.304405924970921e-06 0.014702131633292547 0.009428948090210073 0.004642337231565763 0 0 0
6 1 3100.0 3.936349365870244e-06 0.0025355801498703374 0.016522717476013284 0.013911111837372795 0 0 0
7 1 3100.0 4.6262042590476825e-05 0.014946845742184042 0.010396286347042281 0.0190036099374704 0 0 0
8 1 3100.0 0.00015299013138835116 0.015701339564297527 0.017737328578130027 0.018759563339527354 0 0 0
9 1 3100.0 6.292083239247812e-05 0.016860682337309113 0.013753615987668189 0.0038483291629078003 0 0 0
10 1 3100.0 9.645458468743824e-06 0.01683546570258448 0.009882096067322321 0.01884448862505343 0 0 0
11 1 3100.0 3e-05 0.004632276856297807 0.016025029798956147 0.015710331416093824 0 0 0
12 1 3100.0 1.0273279820091441e-05 0.004150681915121624 0.013430306493282947 0.019306471972480567 0 0 0
13 1 3100.0 0.00016164775564604935 0.006278470622720897 0.01764957954440596 0.008891861062300714 0 0 0
14 1 3100.0 0.0001172813625217539 0.004725613357884482 0.007202964860237046 0.005767678005313137 0 0 0
15 1 3100.0 4.957522700921607e-05 0.018501385121338518 0.005593718078590406 0.01869754890298763 0 0 0
16 1 3100.0 1.7094349094945333e-05 0.014644175999236677 0.01550313238967008 0.001530266376327056 0 0 0
17 1 3100.0 0.00011939436826759605 0.0024709865009495146 0.01666689197657711 0.002408413413783679 0 0 0
18 1 3100.0 0.00011349041918536657 0.006505627907819903 0.00752864537824803 0.0018033009323447052 0 0 0
19 1 3100.0 4.900293175444183e-05 0.005256099882621403 0.005542960799738228 0.005969075988594694 0 0 0
20 1 3100.0 4.323812551732467e-06 0.008280699213618884 0.009929887804894654 0.016779991595617622 0 0 0
21 1 3100.0 6.548773083647695e-05 0.00559934683235247 0.01042555794145705 0.01702592698481103 0 0 0
22 1 3100.0 6.877472741112598e-05 0.016652107218474224 0.009002859620126036 0.015763367608069113 0 0 0
23 1 3100.0 9.32611519178792e-05 0.015272145954440743 0.0008585203030048995 0.011861787190459435 0 0 0
24 1 3100.0 8.391805338171693e-05 0.019582972211983737 0.015363766935898112 0.013010352593185026 0 0 0
25 1 3100.0 8.037867500162395e-05 0.015536233175871137 0.007433028025403852 0.0026964774147464465 0 0 0
26 1 3100.0 0.0001868946157025419 0.012403960991202756 0.004814621556086496 0.015046793185264406 0 0 0
27 1 3100.0 1.1271616388881457e-05 0.0003466209713446028 0.0010440946509868358 0.0009158118604038875 0 0 0
28 1 3100.0 8.429159769515798e-05 0.01345768545978618 0.008581832143540307 0.011653055727831946 0 0 0
29 1 3100.0 0.00010872710415519835 0.005262653615477583 0.014550540305362774 0.008508212776862315 0 0 0
30 1 3100.0 6.598641052544811e-06 0.0156681449737598 0.015916473215007425 0.005936351430437059 0 0 0
31 1 3100.0 5.501262310245548e-05 0.006442325253757506 0.00547979356418216 0.018980610000590606 0 0 0
32 1 3100.0 2.8472236821206127e-05 0.0016555406352952553 0.011707748062415159 0.013356724763502015 0 0 0
33 1 3100.0 5.345353912201794e-05 0.014032700055271156 0.010041708139951849 0.00644197250543129 0 0 0
34 1 3100.0 4.925976110425246e-06 0.0012824045823254392 0.00828129507823309 0.009594316815696672 0 0 0
35 1 3100.0 0.00011976912340499782 0.013850625392427455 0.005043720045107433 0.005694976606999735 0 0 0
36 1 3100.0 8.194350773502623e-05 0.019019028300761652 0.009254276825410334 0.012123026995381486 0 0 0
37 1 3100.0 0.00017528338864178445 0.015798284308003296 0.01834435203438935 0.007351522983438185 0 0 0
38 1 3100.0 7.573154686129729e-05 0.004731593362726596 0.01939491615916949 0.0026274822237224854 0 0 0
39 1 3100.0 4e-05 0.019464733154873345 0.009329315752726169 0.003474985894370515 0 0 0
40 1 3100.0 0.00026498768442460266 0.014504107907305793 0.0005236745328306669 0.019132722789254663 0 0 0
41 1 3100.0 0.00011311057087164249 0.015008083773691758 0.013436225383115882 0.008098919050257062 0 0 0
42 1 3100.0 7.59494353248062e-05 0.015650127269894735 0.008110106434997067 0.01012745450909926 0 0 0
43 1 3100.0 0.00015687968883943603 0.01639252802484962 0.011423728614741491 0.0051975574579341925 0 0 0
44 1 3100.0 1.0822420871672268e-05 0.0012699366326588445 0.010052985467033213 0.005210218799070117 0 0 0
45 1 3100.0 1.6648994712985727e-05 0.0054320497063910156 0.010817088207723995 0.01578189950797003 0 0 0
46 1 3100.0 2.3579951408001307e-05 0.007361571272097521 0.008482847392337877 0.016046837641619145 0 0 0
47 1 3100.0 0.00010918866050284839 0.0030986890366549486 0.005617714529434557 0.011315673405276698 0 0 0
48 1 3100.0 0.0001417225422800299 0.009053165959433977 0.004255218944491088 0.0049834203047826025 0 0 0
49 1 3100.0 0.00010661570007451172 0.0033100851570698046 0.013865871453502815 0.005054785722322185 0 0 0
50 1 3100.0 0.00020228274339069327 0.013882828498854487 0.0010659817377720998 0.010183363148866035 0 0 0
51 1 3100.0 8.637593664357696e-05 0.0038978945593090473 0.00038514584149277546 0.0017176449252650928 0 0 0
52 1 3100.0 7.304828069978332e-05 0.013005335337714658 0.019360891287589783 0.009530214526918825 0 0 0
53 1 3100.0 0.00016000819064866683 0.009058297323311005 0.012867143203904568 0.018102096634265215 0 0 0
54 1 3100.0 7.54827252674296e-05 0.017134808355925478 0.007924693601301155 0.014476402956241726 0 0 0
55 1 3100.0 8.902986539284216e-05 0.00011309219398777598 0.012682064705194996 0.011316282886615334 0 0 0
56 1 3100.0 1.1930661709845683e-05 0.014395492889532548 0.0097323361379399 0.014995074757854639 0 0 0
57 1 3100.0 1.5719456120167447e-05 0.009964756696023864 0.008260495644259343 0.014982870972630298 0 0 0
58 1 3100.0 1.535311846209674e-05 0.01602845502344734 0.010312415000374995 0.014292542817105349 0 0 0
59 1 3100.0 4.7900176960489494e-05 0.0030918571959954004 0.0031126923581611078 0.002525970428323297 0 0 0
60 1 3100.0 0.00013957778934335508 0.006193568132497059 0.003952677411812125 0.0007625516300909438 0 0 0
61 1 3100.0 7.822694495041882e-05 0.015291936865658011 0.014244661434053922 0.008124694978911105 0 0 0
62 1 3100.0 7.943124505103722e-05 0.007419810603718751 0.01781809579787104 0.00443928945366344 0 0 0
63 1 3100.0 8.949856274803016e-05 0.007385383522024117 0.007910645645853979 0.019046873480180446 0 0 0
64 1 3100.0 0.0001309046452690255 0.017947999746935023 0.011452378840054138 0.003090576530113662 0 0 0
65 1 3100.0 7.836562815385558e-06 0.0008945591950289755 0.004735847360740098 0.01910772471842451 0 0 0
66 1 3100.0 6.355166956376203e-05 0.0028058908063914546 0.003978377365151806 0.010078842078552893 0 0 0
67 1 3100.0 8.50560958119716e-05 0.0020335775069088543 0.002711492701168225 0.014233340569672633 0 0 0
68 1 3100.0 8.467793906902218e-06 0.01548041256206975 0.013962719682200161 0.010513018673336132 0 0 0
69 1 3100.0 0.00012431588086698195 0.0045122876157135255 0.016839253958898154 0.016862763471865917 0 0 0
70 1 3100.0 0.00010503828138771512 0.018374469389212222 0.013561437723505978 0.0173633578001441 0 0 0
71 1 3100.0 7.429688811459694e-05 0.0034146521337569797 0.002107172710810238 0.006119013919389062 0 0 0
72 1 3100.0 6.203966374655734e-05 0.012550433354121194 0.018992459266252353 0.01950385562156441 0 0 0
73 1 3100.0 7.254262909663926e-06 0.010232460922566229 0.01948639777540392 0.012183898548868293 0 0 0
74 1 3100.0 7.804196863338999e-05 0.006970050678273607 0.017998837607302275 0.013407049528575883 0 0 0
75 1 3100.0 3e-05 0.0008946255656791762 0.009224000147216036 0.011040808523787162 0 0 0
76 1 3100.0 8.234294071623029e-05 0.0030633938176810875 0.0003962752014185089 0.01710025512763811 0 0 0
77 1 3100.0 5.37376286667535e-05 0.0016487855321876592 0.002280121571391652 0.012717285482544095 0 0 0
78 1 3100.0 0.00010288474611882115 0.0031609138616200913 0.015752078751274615 0.002072345394057515 0 0 0
79 1 3100.0 9.709695743956609e-05 0.005097325126715025 0.019789156068654206 0.010388497200481068 0 0 0
80 1 3100.0 7.266473274845433e-06 0.00792268724272427 0.010693069257961626 0.003735221214941864 0 0 0
81 1 3100.0 4e-05 0.006989311354132203 0.008335990095227654 0.017367107000715407 0 0 0
82 1 3100.0 0.00017310163430072194 0.015501269688579995 0.0037308369204360056 0.01117420754824337 0 0 0
83 2 7870.0 0.0003 0.009926124213877882 0.012040769456152754 0.0194922212200284 0 0 0
84 1 3100.0 0.00013730030276024938 0.003169879571076772 0.012914628801882447 0.010940227929560762 0 0 0
85 1 3100.0 9.391530136596236e-06 0.007014864226459329 0.004472074905647815 0.012097469291059744 0 0 0
86 1 3100.0 0.0002751880406915931 0.015433850120763374 0.009482624126940023 0.007836804252537643 0 0 0
87 1 3100.0 1.666963833983141e-05 0.011875163531966906 0.009844158717598764 0.01585253585610244 0 0 0
88 1 3100.0 0.00012042132181649784 0.011762156807764037 0.008404032644605446 0.01557980730889991 0 0 0
89 1 3100.0 7.73856308822261e-05 0.006067009953869738 0.018123415205076723 0.006113789965491656 0 0 0
90 1 3100.0 5.903332959837563e-06 0.012827106904443948 0.0003998389165386585 0.01942930122698421 0 0 0
91 1 3100.0 7.855980601790904e-05 0.006343522861449901 0.012617962697018165 0.0028360046108337343 0 0 0
92 1 3100.0 0.0001303478294062425 0.015048047032590437 0.006328786187725517 0.011987872803123327 0 0 0
93 1 3100.0 0.00016044291983541712 0.006715248111900981 0.007927796489700772 0.0012958948083737203 0 0 0
94 1 3100.0 2.8208014522826167e-05 0.0120441407968786 0.003981234624757037 0.0177660283023282 0 0 0
95 1 3100.0 8.594097832059711e-05 0.010356143784617964 0.012987374916636847 0.016471584577307664 0 0 0
96 1 3100.0 9.721694121008981e-06 0.0184202617821505 0.009696440047709034 0.001301298504304187 0 0 0
97 1 3100.0 4.173435592870657e-05 0.003063353807231635 0.008607008176389288 0.0046119628705684835 0 0 0
98 1 3100.0 1.0589483314754737e-05 0.0007705652330617984 0.00999489886631385 0.012584509426376445 0 0 0
99 1 3100.0 0.0001183831816282529 0.01419641770156931 0.015051409686478383 0.016047475666342827 0 0 0
100 1 3100.0 0.00012640068811081256 0.01211997309409523 0.014740241020338843 0.01695507074156063 0 0 0
101 1 3100.0 0.00013523748604252767 0.01450156055011638 0.008734985311837477 0.01367473488784783 0 0 0
102 1 3100.0 0.00021217283649776177 0.017708971591021833 0.016719570844798817 0.005323798879099938 0 0 0
103 1 3100.0 0.00015623261976935218 0.018932040442701824 0.01605178505671507 0.01408441798491205 0 0 0
104 1 3100.0 4e-05 0.01778615079781587 0.0059171612553628305 0.0009436894730198398 0 0 0
105 1 3100.0 5.089636618288913e-05 0.017642232866482213 0.003231525770095799 0.005359887791336971 0 0 0
106 1 3100.0 9.253598179400653e-05 0.018268267421609054 0.007643790150921553 0.004595665646314279 0 0 0
107 1 3100.0 2.6970507908788044e-05 0.013883078150956596 0.009999518628924915 0.017206417647182084 0 0 0
108 1 3100.0 0.00012656527584477788 0.004589010914974286 0.01298619956256451 0.0013210303831568493 0 0 0
109 1 3100.0 7.219066231557897e-05 0.011451281749853142 0.00753096558114324 0.016061688015973616 0 0 0
110 1 3100.0 1.1021870104608455e-05 0.014741154690723787 0.007842275084891416 0.001346131581314789 0 0 0
111 1 3100.0 0.00010402337918567397 0.017852656195055754 0.013752930993455894 0.01268216670769543 0 0 0
112 1 3100.0 7.786070382605506e-05 0.014478763062770779 0.01158858226749905 0.004519723512194304 0 0 0
113 1 3100.0 0.00020703556076076332 0.018260312184394018 0.01433846246624374 0.007995912155082763 0 0 0
114 1 3100.0 9.367644422348085e-05 0.014105942440475708 0.005236991549272197 0.009836835800378406 0 0 0
115 1 3100.0 0.0001293065387725466 0.00271208913653807 0.009929481507189654 0.00926712290126023 0 0 0
116 1 3100.0 1.9960993794155152e-05 0.0014395368122536278 0.0019789790906555803 0.005217246784403641 0 0 0
117 1 3100.0 0.00014746053544544346 0.015223076908044305 0.0011058169147163083 0.009751536130080231 0 0 0
118 1 3100.0 1.9517438248725578e-05 0.006507231815684757 0.007084308945054451 0.00916919724442591 0 0 0
119 1 3100.0 0.00018490707281912776 0.01915413249249377 0.00616139658750111 0.004003311008349531 0 0 0
120 1 3100.0 2.441235439261193e-05 0.007248121875048876 0.004554951907027457 0.011289432961603963 0 0 0
121 1 3100.0 7.9080063441457e-05 0.018528587820733584 0.011579785720186652 0.006811762562956837 0 0 0
122 1 3100.0 1.0192748856914025e-05 0.012379340675801612 0.014625981503442463 0.014984722923436493 0 0 0
123 1 3100.0 1.2021898744298327e-05 0.004870161900810169 0.0028316454406689456 0.011819021725075058 0 0 0
124 1 3100.0 4.067154089830306e-06 0.010572500225689061 0.00516054762891362 0.003242575290482352 0 0 0
125 1 3100.0 3e-05 0.015200736810110037 0.002258133470610096 0.0052850505556460425 0 0 0
126 1 3100.0 0.00015330992329538561 0.010073865219930863 0.01056815011997738 0.016192588801881867 0 0 0
127 1 3100.0 6.727367019168893e-05 0.01642506383228858 0.010742806614379541 0.014697580028667723 0 0 0
128 1 3100.0 0.00017146542133719412 0.011315702819676532 0.014305058877377442 0.0019116455020487565 0 0 0
129 1 3100.0 7.352657006586227e-05 0.010682295352263704 0.019100907256461904 0.0005066618632693003 0 0 0
130 1 3100.0 8.390015625832524e-05 0.007910160108159082 0.0184243018558924 0.010733001832118113 0 0 0
131 1 3100.0 4.775337305379216e-06 0.018679609015613066 0.015809252343121295 0.00021389686558116362 0 0 0
132 1 3100.0 3e-05 0.013857942986199048 0.014529763222796113 0.005531375012494457 0 0 0
133 1 3100.0 2.5250816513433303e-05 0.0013270100668353664 0.006900231634165909 0.0058753522843428265 0 0 0
134 1 3100.0 8.833303235243731e-05 0.01986061257473622 0.017821137240569503 0.001904142717655338 0 0 0
135 1 3100.0 5.363281953449283e-05 0.0014431875531973346 0.0071659816369258975 0.004195118257721279 0 0 0
136 1 3100.0 5.402029231202368e-05 0.0036518992350236265 0.014430003448826584 0.014967479198344128 0 0 0
137 1 3100.0 1.3108058942140411e-05 0.00245894930045428 0.00822076022785281 0.0039723165341960555 0 0 0
138 1 3100.0 1.764730085482079e-05 0.017090073017798153 0.0093664603306715 0.0029721651555058475 0 0 0
139 1 3100.0 6.876351500018309e-05 0.005383539663692671 0.016306204122655446 0.015790022998166956 0 0 0
140 1 3100.0 7.898602900611272e-05 0.004205864957719508 0.013907918034674324 0.01605937450913306 0 0 0
141 1 3100.0 9.608289378661162e-05 0.012574241611021176 0.00478582138679021 0.0011734858820549204 0 0 0
142 1 3100.0 1.5633971936555856e-05 0.0017911274533764926 0.0034628865902145665 0.00799552154527889 0 0 0
143 1 3100.0 0.00017303656852648715 0.01961049693356852 0.008404215731644547 0.018679148301083467 0 0 0
144 1 3100.0 0.0002693148949031878 0.012616728535832261 0.0019981684640944224 0.014722444030660984 0 0 0
145 1 3100.0 2.0275404614799397e-05 0.0011525281019899559 0.0069882915981741974 0.0012793603304381619 0 0 0
146 1 3100.0 8.241322706028587e-05 0.012332877616250574 0.014337696327751542 0.00469342457753851 0 0 0
147 1 3100.0 1.2127836508730639e-05 0.008465657095926586 0.008152114317004534 0.00491965979366285 0 0 0
148 1 3100.0 4.225254546442003e-05 0.0027832516464692527 0.017095179593962874 0.012808999800577928 0 0 0
149 1 3100.0 1.2122412730415312e-05 0.007098741260793652 0.010531010009286124 0.007262613928566765 0 0 0
150 1 3100.0 1.3866382712449851e-05 0.006568138256337214 0.0069347397767490085 0.0019761538598017177 0 0 0
151 1 3100.0 4.517243261743812e-05 0.006921226631666943 0.018820642349130105 0.00536548683589192 0 0 0
152 1 3100.0 6.604917692293345e-05 0.016402409628789354 0.0033788212122339086 0.0029640160536796734 0 0 0
153 1 3100.0 5.768347124029963e-05 0.0033436857239700847 0.01585845535721283 0.01669046554704652 0 0 0
154 1 3100.0 0.00011453089289179744 0.004864162683438285 0.00213438951503227 0.013263362072194867 0 0 0
155 1 3100.0 4.609978688379719e-06 0.017857518929857777 0.019740872422550373 0.010802621684144689 0 0 0
156 1 3100.0 5.108728889131409e-05 0.015689062369712455 0.001099612204362777 0.019496867241445653 0 0 0
157 1 3100.0 4.997711537546054e-06 0.009675857455339816 0.002552329991065433 0.002240000180512122 0 0 0
158 1 3100.0 0.00012961934538075742 0.01867261579180706 0.010780200616967158 0.011112547521045582 0 0 0
159 1 3100.0 3e-05 0.0004497863583858991 0.009386498827706605 0.011951157433008243 0 0 0
160 1 3100.0 1.2036146976782996e-05 0.008137950720277676 0.0046318889389440595 0.019034226126717964 0 0 0
161 1 3100.0 5.644781764219185e-05 0.005814800397089212 0.00940932835849094 0.014669706856806086 0 0 0
162 1 3100.0 0.00010776947911245651 0.001892665234934617 0.005982344329628294 0.0024083933990789604 0 0 0
163 1 3100.0 0.00016406070959990412 0.016878148027405053 0.009136438490344194 0.0041913451021612135 0 0 0
164 1 3100.0 4.894186812354264e-06 0.006572890553939196 0.019079558207790382 0.005697985426893042 0 0 0
165 1 3100.0 9.028107269564207e-05 0.01877481876098007 0.002920817850576737 0.01595893871292093 0 0 0
166 1 3100.0 3e-05 0.0023827403650226574 0.004987674283450164 0.015635413732093362 0 0 0
167 1 3100.0 6.6829040617437816e-06 0.00426053405244927 0.019152094985990867 0.010478231549303153 0 0 0
168 1 3100.0 0.00015281501534023708 0.006448552915503844 0.0034123161705539888 0.010316639277459915 0 0 0
169 1 3100.0 9.842655245421937e-05 0.014558667595406085 0.0012577560930612144 0.01543538238541392 0 0 0
170 1 3100.0 0.00010332177491118998 0.019382398301118615 0.015040230563755419 0.014940255198268797 0 0 0
171 1 3100.0 0.00011821647818626815 0.006131818256377289 0.018035449878297864 0.01250021341150728 0 0 0
172 1 3100.0 7.93583272996655e-05 0.010339513599981552 0.01180471274607291 0.019847451676042096 0 0 0
173 1 3100.0 8.824428512386463e-05 0.018344381613154628 0.011166004233837536 0.009421499050374522 0 0 0
174 1 3100.0 0.0001323410184027643 0.012324355484585114 0.01387399145147397 0.0028699210874081464 0 0 0
175 1 3100.0 0.00014364054605578013 0.012086429418621347 0.005932803869667238 0.0030550505018015752 0 0 0
176 1 3100.0 8.044381096621191e-05 0.01361222149793181 0.000623097980610702 0.015059704184538421 0 0 0
177 1 3100.0 6.089338469412566e-05 0.013987634458760249 0.007254912015817146 0.01314454555312429 0 0 0
178 1 3100.0 0.0001084122530170938 0.01229945548411243 0.005405453250437807 0.006061105798449691 0 0 0
179 1 3100.0 0.00015078697425143466 0.018459094392099987 0.01820960126713989 0.008996357765556564 0 0 0
180 1 3100.0 0.00010506685837844471 0.004364446101616036 0.003193938656235061 0.01707923956036466 0 0 0
181 1 3100.0 6.256055721599647e-05 0.005957884934276351 0.01947425665515116 0.00032135126758010775 0 0 0
182 1 3100.0 0.00012289952355892046 0.010570157627657237 0.001103267662118377 0.01007118551077356 0 0 0
183 1 3100.0 4.6552206326797865e-06 0.004795812294510768 0.003049658604335416 0.006610541098360898 0 0 0
184 1 3100.0 6.536347521403874e-06 0.017589688151700592 0.014862854215881892 0.006891601181865444 0 0 0
185 1 3100.0 0.00010255425109990813 0.005228069833326633 0.0067114208652964075 0.014811266170632243 0 0 0
186 1 3100.0 9.933220975697026e-06 0.008675319243181436 0.014910220225268434 0.015319390566234955 0 0 0
187 1 3100.0 0.00016995250468769334 0.012889839078777833 0.005971094548309874 0.01381577070741718 0 0 0
188 1 3100.0 7.464975754360198e-05 0.009043575546108166 0.00640165283377534 0.01651530685032925 0 0 0
189 1 3100.0 6.222209729398758e-06 0.01914746334302732 0.010947970814819848 0.005626922039442536 0 0 0
190 1 3100.0 0.00018821528977841544 0.014914661711438916 0.009789798935286878 0.0013311804896926412 0 0 0
191 1 3100.0 0.00010311246400272265 0.006448671221349752 0.009753083484410155 0.01672396717330561 0 0 0
192 1 3100.0 5.345202782429796e-05 0.001561545668947676 0.015622822432592161 0.008971747318719943 0 0 0
193 1 3100.0 8.221771785295831e-05 0.006269844875443922 0.01644258922004378 0.014955370745089335 0 0 0
194 1 3100.0 7.930346781275645e-05 0.00683685375623399 0.018143847807627237 0.003759645641145811 0 0 0
195 1 3100.0 1.796109825070539e-05 0.008318805079772635 0.0036516369366442424 0.00565600561196704 0 0 0
196 1 3100.0 1.1697356684374985e-05 0.012741110272554187 0.01830338778650512 0.015673061506621046 0 0 0
197 1 3100.0 9.020049577081415e-06 0.007685710318334488 0.005507089979732865 0.0011837943405924893 0 0 0
198 1 3100.0 7.196404578109655e-06 0.017787560134159813 0.003532177313131055 0.01562612707120205 0 0 0
199 1 3100.0 4.950080267219603e-05 0.01578462309981464 0.017307332100274086 0.01630668884792873 0 0 0
200 1 3100.0 1.73046469819899e-05 0.014452297182941939 0.014004599136944287 0.014203535077600525 0 0 0
201 1 3100.0 4.521654575984001e-05 0.018119026232533874 0.016829571770702545 0.012338004628664627 0 0 0
202 1 3100.0 0.00013006108960562308 0.008113106694199138 0.016727610871550797 0.003232831446233763 0 0 0
203 1 3100.0 4e-05 0.006250980948317572 0.01431547474154717 0.015188158969935698 0 0 0
204 1 3100.0 1.7271057275966906e-05 0.018604598885580595 0.01874340763901554 0.004169547311754293 0 0 0
205 1 3100.0 0.0002462365647633224 0.005853786042338308 0.012473414329232733 0.011729514489088141 0 0 0
206 1 3100.0 9.360877877994571e-05 0.014529083811581328 0.004837079970754452 0.009416563157379808 0 0 0
207 1 3100.0 0.00011036173897933886 0.01689674137894709 0.006970316999592217 0.0029504694626030542 0 0 0
208 1 3100.0 2.9911757473959525e-05 0.011001555156979889 0.0019037478370716916 0.010052930067568456 0 0 0
209 1 3100.0 9.188919746791622e-06 0.006622089162455007 0.019607292485511293 0.008004103828623632 0 0 0
210 1 3100.0 1.135905218830509e-05 0.01957641236569064 0.01635117068093307 0.005579339294842952 0 0 0
211 1 3100.0 5.248906279124496e-05 0.01910810542249802 0.00999518665579046 0.006462792890394819 0 0 0
212 1 3100.0 7.538080165330698e-06 0.006291096292140786 0.0021036455741074113 0.01762270573083197 0 0 0
213 1 3100.0 1.9559624171226908e-05 0.011785428044256249 0.009297061666702104 0.007019406804148705 0 0 0
214 1 3100.0 1.8022030048471552e-05 0.0006582510227791643 0.011224843362720484 0.002627765587630728 0 0 0
215 1 3100.0 8.507496697249824e-05 0.008287767393603651 0.00793096539525453 0.010866914819157414 0 0 0
216 1 3100.0 0.00010847346382715258 0.01489986567636872 0.0147692145536374 0.013204813819368907 0 0 0
217 1 3100.0 9.443322507723205e-06 0.007812028180221686 0.010174907041405737 0.01917160805313387 0 0 0
218 1 3100.0 8.822716537165064e-05 0.008495018017968793 0.001083732155484444 0.014898525651690572 0 0 0
219 1 3100.0 0.0001245759669905201 0.01671377539112105 0.00297672574544156 0.00953808469571853 0 0 0
220 1 3100.0 0.00021650122085411748 0.01241145994925457 0.010026503173234504 0.006047538399149904 0 0 0
221 1 3100.0 0.00011313580709399997 0.01283765933647328 0.005354473126978142 0.004528593777602238 0 0 0
222 1 3100.0 3e-05 0.010852731861185292 0.018863478001811863 0.0012159625168068537 0 0 0
223 1 3100.0 5.57764672074877e-05 0.017434523956447217 0.0016964479780751007 0.00584974328358564 0 0 0
224 1 3100.0 1.952834599787843e-05 0.0027903886475553656 0.01131496713817753 0.0020153223382550255 0 0 0
225 1 3100.0 0.0001363950022713968 0.0025200972819126614 0.008033496846096624 0.01322910713779807 0 0 0
226 1 3100.0 0.00019160500092185511 0.007897014232233964 0.012730186500596711 0.009718546522153025 0 0 0
227 1 3100.0 1.3597903935222434e-05 0.010925353713370653 0.005528766021047361 0.007520678037116765 0 0 0
228 1 3100.0 6.846542203196843e-05 0.01607306755252854 0.015444741719332886 0.016203921362279005 0 0 0
229 1 3100.0 5.221804438839945e-05 0.011340787183935408 0.007890155309811351 0.008784185138052862 0 0 0
230 1 3100.0 6.214272906798432e-05 0.0015379493589385085 0.002681205463412739 0.0005083697336403845 0 0 0
231 1 3100.0 8.387190095813062e-05 0.010504889669754543 0.011913444759098142 0.00027069935261244993 0 0 0
232 1 3100.0 1.0773132292122285e-05 0.01779940751485832 0.005961814052541839 0.0012942179036321616 0 0 0
233 1 3100.0 2.3857161264373155e-05 0.019609133160857307 0.003223922821415207 0.0037696248805041835 0 0 0
234 1 3100.0 4.6046761244593246e-05 0.0032634790092520576 0.014464466844985757 0.007091413094238094 0 0 0
235 1 3100.0 9.598844496331972e-05 0.014859802457923897 0.002961597323853009 0.013279748675902687 0 0 0
236 1 3100.0 9.075798842297562e-06 0.01771121088049533 0.0016751247436039523 0.01223490719744635 0 0 0
237 1 3100.0 0.00029403921799110375 0.013857314339908795 0.012472694514974245 0.01787412756922126 0 0 0
238 1 3100.0 1.1464054365778656e-05 0.0019784566174377437 0.01292625496503602 0.004480055089516733 0 0 0
239 1 3100.0 0.000148642179500911 0.014633172129830794 0.018632352658844723 0.00622701393362845 0 0 0
240 1 3100.0 0.00019569542345033606 0.017364817651289423 0.010751795274641424 0.019226269289992583 0 0 0
241 1 3100.0 6.782391463488746e-05 0.0163572970093732 0.0058104878369794055 0.00011934098258996471 0 0 0
242 1 3100.0 8.337057667666201e-05 0.012176516152951936 0.003912011339190051 0.008123654667568663 0 0 0
243 1 3100.0 0.00022748789019401414 0.01038749405704474 0.00045312711134869155 0.004888075113580154 0 0 0
244 1 3100.0 6.785288784037392e-06 0.01616089895159666 0.015698584180851707 0.006689610779469458 0 0 0
245 1 3100.0 2.5266981157420235e-05 0.011461764196296603 0.0161043507714937 0.018867940803275626 0 0 0
246 1 3100.0 4.6451946825832716e-05 0.01716447045962871 0.005390057642997846 0.016434673329427933 0 0 0
247 1 3100.0 4.105852980799826e-06 0.003988029876211741 0.011836242595943064 0.012336699935038662 0 0 0
248 1 3100.0 5.49761404906729e-05 0.015875702291301984 0.012904587322386548 0.005383182788143148 0 0 0
249 1 3100.0 2.2599740661583726e-05 0.0043735678859000895 0.0037138582689799004 0.0011869929129196249 0 0 0
250 1 3100.0 4.666938961041968e-05 0.008446497320272165 0.009329351069445201 0.018520932643971935 0 0 0
251 1 3100.0 7.171868762078476e-06 0.004582736631884022 0.005889214475372673 0.00532177081943163 0 0 0
252 1 3100.0 5.227918882730441e-05 0.018180076091205574 0.018101661381091518 0.019647287284745286 0 0 0
253 1 3100.0 0.00010466893456733198 0.019098484177232568 0.0019719111999589186 0.0001479985320450681 0 0 0
254 1 3100.0 0.00012622607271588947 0.0025453552468662393 0.01611729007168333 0.01712482697213619 0 0 0
255 1 3100.0 1.1104957360393595e-05 0.013188064639016525 0.015315231083899797 0.016693628799664424 0 0 0
256 1 3100.0 3.048362585646839e-06 0.010835597581609766 0.0014261485811420537 0.009206029741748369 0 0 0
257 1 3100.0 8.564061833485851e-05 0.0027611571964274275 0.01511464820727344 0.009723124078384882 0 0 0
258 1 3100.0 0.00010053303666187182 0.005056196970699761 0.00615464683327064 0.0006737108004263056 0 0 0
259 1 3100.0 7.482921141453984e-05 0.01117143915038372 0.018071478718148744 0.017472473693197495 0 0 0
260 1 3100.0 4e-05 0.019242685385248835 0.017625249748017477 0.004182804145534919 0 0 0
261 1 3100.0 3e-05 0.007538009993664492 0.0022046141386890725 0.016910667223153635 0 0 0
262 1 3100.0 1.1853680620671366e-05 0.006771706692209982 0.01172816076344006 0.0023271850229691056 0 0 0
263 1 3100.0 1.1008441147441165e-05 0.0010916323080233403 0.014833992173684179 0.008265978374088968 0 0 0
264 1 3100.0 8.806904025076718e-05 0.0007621936177201311 0.019685180900549545 0.008940247579584332 0 0 0
265 1 3100.0 6.855332902924656e-05 0.015031786802221718 0.01743231130529932 0.006236497316817059 0 0 0
266 1 3100.0 0.00012528084796638477 0.0074224916628190755 0.012899902801276937 0.0035679966724401924 0 0 0
267 1 3100.0 2.1265621940451675e-05 0.018544603733049485 0.011646483375742525 0.0010312434945607878 0 0 0
268 1 3100.0 2.0543797676886708e-05 0.00819127976279998 0.011095616896403157 0.004724382891577786 0 0 0
269 1 3100.0 8.468264340591432e-05 0.0033289582789210437 0.005649272329070559 0.007273487329795152 0 0 0
270 1 3100.0 9.706440671244079e-05 0.0005953649726289839 0.005884689963695753 0.015405927118433388 0 0 0
271 1 3100.0 8.905582382335174e-06 0.0125964791130165 0.004894942174871222 0.018487521106614755 0 0 0
272 1 3100.0 7.120785204179556e-05 0.019459314923167846 0.01659081757176475 0.017854877102652315 0 0 0
273 1 3100.0 1.9724931548658185e-05 0.011551636818865436 0.0119795320816834 0.006247551056242078 0 0 0
274 1 3100.0 9.210321564886851e-05 0.01313478860380049 0.009662929695431819 0.013292528867175895 0 0 0
275 1 3100.0 9.887333737736965e-05 0.004128496581107824 0.014772613742151839 0.018541614528501997 0 0 0
276 1 3100.0 0.00012174033697986447 0.0005321071217112376 0.004185301830116832 0.006206575971975047 0 0 0
277 1 3100.0 2.3469351084182578e-05 0.009405511857025801 0.010976529986320451 0.008414435118978193 0 0 0
278 1 3100.0 1.9580641528381953e-05 0.013168933485748132 0.002741546830717629 0.01385735761545389 0 0 0
279 1 3100.0 1.3677315531422086e-05 0.009105492467740962 0.012993867826938815 5.595171602621636e-05 0 0 0
280 1 3100.0 6.52657742523053e-05 0.013682419654807237 0.010641192987580617 0.01694428891380992 0 0 0
281 1 3100.0 6.106528676327366e-05 0.014973580599575046 0.01860619967376654 0.01115600025559158 0 0 0
282 1 3100.0 0.00010674148231485152 0.01758630252213457 0.017935605055087456 0.008919289403396875 0 0 0
283 1 3100.0 1.0978196627960237e-05 0.018654877957769433 0.007089400521674925 0.000509518515011281 0 0 0
284 1 3100.0 1.1740948163570093e-05 0.007995961826902074 0.01690720241129523 0.015582516530031726 0 0 0
285 1 3100.0 1.0395896195369705e-05 0.004514465184531211 0.00052245685298738 0.019586933661002434 0 0 0
286 1 3100.0 3e-05 0.017039779484203283 0.01297648139147662 0.007784642622113598 0 0 0
287 1 3100.0 2.8429556037851603e-06 0.012097399185562714 0.01521741215399876 0.009332632624235702 0 0 0
288 1 3100.0 0.00018550744127308663 0.013804967622865805 0.015331097321258593 0.018123936117409544 0 0 0
289 1 3100.0 6.682912716202953e-05 0.013949075493163546 0.002144704370472498 0.008469610577729308 0 0 0
290 1 3100.0 5.997335365634196e-05 0.012374612112544352 0.019840966413480196 0.013445730179109432 0 0 0
291 1 3100.0 8.144118787277258e-05 0.0021279140969987136 0.0014696844405493906 0.013056232830205902 0 0 0
292 1 3100.0 8.838166391245006e-05 0.012219358535764112 0.0037245723514584125 0.01643419275973876 0 0 0
293 1 3100.0 0.00013470827721683633 0.011332002157826062 0.0129465028078359 0.017109370335278457 0 0 0
294 1 3100.0 7.24466580742856e-05 0.005343526123915327 0.0066056756231645765 0.015519647557661442 0 0 0
295 1 3100.0 9.485555118582325e-05 0.016944553222712967 0.01615528499148046 0.015309073050984149 0 0 0
296 1 3100.0 6.577707659732106e-05 0.005112836340197053 0.013707910811983783 0.007211284426736592 0 0 0
297 1 3100.0 0.00017214654442269047 0.010590271782715516 0.005935868143679025 0.0149038332930267 0 0 0
298 1 3100.0 5.177223293778873e-05 0.015800401542502916 0.00472506057230408 0.01726633244798314 0 0 0
299 1 3100.0 2.6099699430399925e-05 0.004058142939570013 0.0003205918012222422 0.010910902120818978 0 0 0
300 1 3100.0 4.5108287862911374e-05 0.008931582918082258 0.006403792330430276 0.006515841215220713 0 0 0
301 1 3100.0 8.527012456428096e-05 0.006660915093628107 0.0060945129587247696 0.006680706078997911 0 0 0
302 1 3100.0 1.7916361624113666e-05 0.009854644936636469 0.009987080157279124 0.01637375801158369 0 0 0
303 1 3100.0 0.00020839452935366733 0.01384606317970859 0.004686900356611202 0.0004026648885327198 0 0 0
304 1 3100.0 7.572783576373955e-06 0.019111598638940738 0.0031536348139379637 0.003973008533394678 0 0 0
305 1 3100.0 9.680500197406066e-05 0.01704540179915906 0.006897085312279907 0.011220502904782962 0 0 0
306 1 3100.0 6.378229568555123e-05 0.009641336701642177 0.017339827636206395 0.01947942055550934 0 0 0
307 1 3100.0 0.00013756218392202947 0.0005110827949904633 0.018317809450892224 0.015710408606646437 0 0 0
308 1 3100.0 1.1786494112173654e-05 0.007663740093995426 0.002635851731085754 0.012966318861441686 0 0 0
309 1 3100.0 0.00014505897490779899 0.014105474850682441 0.013425270896137664 0.007046407012102429 0 0 0
310 1 3100.0 2.1952899930885945e-05 0.0014128279081608596 0.01330624252802134 0.016481690868228142 0 0 0
311 1 3100.0 0.00015936843388240546 0.00483692189711634 0.018026894133041305 0.005917235212271476 0 0 0
312 1 3100.0 0.00013883572738540134 0.011000857266777925 0.0022316513780338684 0.005021193383393302 0 0 0
313 1 3100.0 8.894987813699963e-06 0.004708498385514393 0.010295499310329562 0.007655295416854713 0 0 0
314 1 3100.0 0.00013788170067403598 0.018108026496070705 0.015430567350371613 0.007305605558846433 0 0 0
315 1 3100.0 9.323332125572137e-06 0.01366081478436363 0.010312754394735278 0.01478645431447756 0 0 0
316 1 3100.0 1.4480336384817157e-05 0.004147172657560709 0.011188319794485225 0.005712870629848547 0 0 0
317 1 3100.0 7.107974463512533e-05 0.009958526060085994 0.004684296511937938 0.010834398647775544 0 0 0
318 1 3100.0 1.7108326995292747e-05 0.009336408146870978 0.0021246046668130154 0.0020338098605523413 0 0 0
319 1 3100.0 0.00010110646787619996 0.0037780976388992033 0.009757053091313021 0.01271088483501964 0 0 0
320 1 3100.0 0.00019236752268114358 0.019123097110852957 0.0004713688735181456 0.00031525591376283055 0 0 0
321 1 3100.0 0.00010804427854790074 0.012025611232895757 0.010414806516557847 0.014411157657476758 0 0 0
322 1 3100.0 6.938774715137273e-05 0.0033171115109053256 0.010272476201279133 0.010716632196398611 0 0 0
323 1 3100.0 6.411791613287474e-05 0.011701411837189918 0.006599282943087602 0.016511365699752024 0 0 0
324 1 3100.0 2.7151086849593477e-05 0.019532928244804078 0.014894865708050892 0.005167331106822319 0 0 0
325 1 3100.0 3e-05 0.002766055811444793 0.01978867142904082 0.01856606348958146 0 0 0
326 1 3100.0 8.23625942510518e-06 0.011148749900347863 0.019964380522921484 0.01492291917732613 0 0 0
327 1 3100.0 5.630409667235001e-06 0.012644733818937784 0.006986731641001474 0.019845770598557386 0 0 0
328 1 3100.0 9.413268003549831e-06 0.012211019377060983 0.015130047546828075 0.018767650746728638 0 0 0
329 1 3100.0 9.85219105072143e-06 0.002960433114141274 0.0009877570910331343 0.002138127114036164 0 0 0
330 1 3100.0 9.912196223031389e-05 0.017813089618739075 0.01606187902787178 0.010002107348298445 0 0 0
331 1 3100.0 9.444747581325993e-05 0.01771570772055282 0.014451904595391035 0.006119007671838555 0 0 0
332 1 3100.0 6.892217446989889e-06 0.01586565293386544 0.013949242174428573 0.017333841284295253 0 0 0
333 1 3100.0 7.447402779524941e-05 0.011435913727450741 0.011790503060516006 0.015000326240358384 0 0 0
334 1 3100.0 4e-05 0.011464469784106545 0.014779226022649706 0.0025402760229043557 0 0 0
335 1 3100.0 0.00011690891226484075 0.017477368327366797 0.019491241272968723 0.015873397880869566 0 0 0
336 1 3100.0 0.0001294716729309289 0.017577450590617487 0.007507143651056339 0.008976982877077043 0 0 0
337 1 3100.0 9.737883818622199e-06 0.006181284125750692 0.004633664719500509 0.00016301707803920707 0 0 0
338 1 3100.0 4.2419157139513676e-05 0.011664802849736457 0.011512316482479312 0.013354996456273749 0 0 0
339 1 3100.0 0.00023757886999069554 0.00734078233580768 0.008325643308877936 0.013647636191930346 0 0 0
340 1 3100.0 8.923567580078131e-05 0.0040413502918714705 0.014331180744019956 0.010409269822743521 0 0 0
341 1 3100.0 9.697133576971675e-05 0.019474709391608308 0.00028491560683305885 0.011443688124724655 0 0 0
342 1 3100.0 0.0001959754227765909 0.018062171728688743 0.0026974088926532444 0.013063475607818243 0 0 0
343 1 3100.0 5.518195272273212e-05 0.0028816071618287674 0.0034850064565313233 0.015740271419159374 0 0 0
344 1 3100.0 6.772448901930695e-05 0.007144830100752965 0.01437622180355518 0.008139370239614063 0 0 0
345 1 3100.0 6.909863639627098e-05 0.015601732805492806 0.0061848351284108085 0.009884256702137615 0 0 0
346 1 3100.0 6.898437155879418e-05 0.01770630417916536 0.00019435497794349966 0.006900856126855183 0 0 0
347 1 3100.0 0.00012501970833644433 0.0005757844929680739 0.007212124745079356 0.012305210525963856 0 0 0
348 1 3100.0 5.1215448315628365e-05 0.0074718463630200575 0.010805140842252894 0.006863938575685712 0 0 0
349 1 3100.0 0.0001057109874794098 0.010011150797609905 0.0008832779447354817 0.018165427185660367 0 0 0
350 1 3100.0 2.4988757634567993e-05 0.014497158079568775 0.018386196586525114 0.0009397043647715547 0 0 0
351 1 3100.0 0.00010040495818578088 0.010543845873425342 0.006732711874229486 0.015361217393398548 0 0 0
352 1 3100.0 2.1324888040111523e-05 0.005490769779413829 0.004500316390837711 0.0032040220818713044 0 0 0
353 1 3100.0 1.3733289879339232e-05 0.013233627413516403 0.01988786850031284 0.01806763234334793 0 0 0
354 1 3100.0 0.0002530245575661923 0.017735787105493298 0.007055502758661748 0.016289371524568923 0 0 0
355 1 3100.0 0.000151362346480208 0.0015900702716320357 0.010837163171973124 0.003165732074186918 0 0 0
356 1 3100.0 1.0892894998978758e-05 0.013259258018437272 0.01653793123247807 0.011672419013790725 0 0 0
357 1 3100.0 7.229149779608307e-05 0.01671038868584391 0.007094177363178986 0.008551665075353048 0 0 0
358 1 3100.0 9.680208338516723e-05 0.0016219472679091982 0.007493344176995723 0.0138374887117144 0 0 0
359 1 3100.0 1.0970066528584245e-05 0.012671240818994583 0.011200789358416686 0.015612976095723381 0 0 0
360 1 3100.0 6.17364726562239e-05 0.0026605150606527853 0.011692183905698744 0.006649062785785205 0 0 0
361 1 3100.0 6.820253929247853e-05 0.01041130736935762 0.010513783558112333 0.013236688099316643 0 0 0
362 1 3100.0 1.3725564485743477e-05 0.016913199209090467 0.009586456389559692 0.013733992107982873 0 0 0
363 1 3100.0 8.517673803330359e-05 0.008985967828858096 0.0031301010927372057 0.009601629543355616 0 0 0
364 1 3100.0 9.74558300736018e-06 0.017016814127262768 0.014447237532844414 0.017501075860129153 0 0 0
365 1 3100.0 7.475330989974762e-05 0.0036133422904918357 0.007932663352819808 0.013751617194956642 0 0 0
366 1 3100.0 4.3412206291141406e-05 0.018021137655704823 0.008595090592386856 0.007228265072628627 0 0 0
367 1 3100.0 3e-05 0.009458537579492254 0.005174976491707872 0.01494619723516133 0 0 0
368 1 3100.0 0.00013044493415236485 0.01743807696290193 0.0010428557862703358 0.0176951042913042 0 0 0
369 1 3100.0 4.433066049127499e-05 0.01960850408577558 0.011950921931281689 0.0020021711703066035 0 0 0
370 1 3100.0 3e-05 0.010891917584241954 0.011160870346711725 0.01728799079749916 0 0 0
371 1 3100.0 5.137527468673258e-05 0.017957284009037316 0.0184745603681643 0.005627574450748293 0 0 0
372 1 3100.0 1.3808006388613999e-05 0.001761512963092431 0.01788369838423749 0.008810181257014145 0 0 0
373 1 3100.0 9.20358150310551e-05 0.019541673087275863 0.0018658159861945523 0.012021445204757052 0 0 0
374 1 3100.0 1.1140426269705379e-05 0.009590209173117857 0.007315482429059291 0.014986340694537676 0 0 0
375 1 3100.0 7.27867365120649e-05 0.003585352560485089 0.015609218654984445 0.012567413049953539 0 0 0
376 1 3100.0 6.769531937219653e-05 0.006193687463712593 0.016711147148622884 0.0032796434671706156 0 0 0
377 1 3100.0 7.672844520088937e-05 0.0043232013871909464 0.0028074801401266275 0.0017126689565292053 0 0 0
378 1 3100.0 6.344711288438322e-06 0.018182158685467215 0.007333388659265108 0.01054679334598826 0 0 0
379 1 3100.0 7.72619635484737e-06 0.011459938953430834 0.01891403419588814 0.015261303014417577 0 0 0
380 1 3100.0 5.376567574107098e-05 0.011501970401568574 0.012515068507073623 0.0129655160461698 0 0 0
381 1 3100.0 1.891302118627523e-05 0.003540910964887441 0.013448901558276842 0.019904438524241636 0 0 0
382 1 3100.0 9.180002840933467e-06 0.018215368520320126 0.014394464720583589 0.01578304144422702 0 0 0
383 1 3100.0 9.21826146860037e-05 0.008634363261350059 0.01407399521499722 0.015442558474372266 0 0 0
384 1 3100.0 7.068173830283662e-05 0.016743498247784108 0.003323186001811086 0.01282741526391645 0 0 0
385 1 3100.0 7.04952472923332e-05 0.007832753139404808 0.011586015002970266 0.01600831773557003 0 0 0
386 1 3100.0 8.389863424480407e-05 0.015026487863146865 0.012326912953536162 0.009273037854259253 0 0 0
387 1 3100.0 4e-05 0.006684185577320903 0.019621899603799724 0.0031717086734278387 0 0 0
388 1 3100.0 4e-05 0.014508797121580716 0.012967940666570681 0.0019449601467101186 0 0 0
389 1 3100.0 0.00024148586002481828 0.0020161178313787163 0.009852068360947692 0.011625924794043358 0 0 0
390 1 3100.0 5.900694819952923e-06 0.00796201825080324 0.013913317314041197 0.0016585510639535379 0 0 0
391 1 3100.0 5.752601550001378e-05 0.01729445278991832 0.018183264840704223 0.0016480507172786298 0 0 0
392 1 3100.0 1.4310406471579274e-05 0.0033277820360706994 0.018557542408954734 0.006006342494970641 0 0 0
393 1 3100.0 0.00018077493825086413 0.011455764318398641 0.01115131384531226 0.00022013686592345415 0 0 0
394 1 3100.0 3e-05 0.009093567130113583 0.014921253355686965 0.0003160092848590283 0 0 0
395 1 3100.0 3e-05 0.0009141950388260688 0.008419830369400643 0.010303877734555093 0 0 0
396 1 3100.0 8.610777200426619e-05 0.014344893159834548 0.011029084917468925 0.012261066796784247 0 0 0
397 1 3100.0 0.00014730169226925108 0.016563251498049825 0.002843719396124163 0.010862180340631064 0 0 0
398 1 3100.0 0.0001505221942535224 0.01952379808081007 0.012266661478388313 0.01759233432108547 0 0 0
399 1 3100.0 7.702007552200687e-05 0.004005502400603046 0.005284773257591598 0.008449001615434494 0 0 0
400 1 3100.0 2.0449698085058703e-05 0.007183277401496856 0.015001870493067108 0.0011018558718446246 0 0 0
401 1 3100.0 8.40288081324683e-06 0.010487587439057929 0.012414247793661175 0.01730794908823003 0 0 0
402 1 3100.0 4.832195905665316e-05 0.006918809005143726 0.009653781536601395 0.007573155070438413 0 0 0
403 1 3100.0 1.2091153526062252e-05 0.018590899508779544 0.010304416574635149 5.9847645347012264e-05 0 0 0
404 1 3100.0 7.044647733304075e-05 0.017201105505813042 0.0009089567524998477 0.01873258012540829 0 0 0
405 1 3100.0 0.0001194537124475334 0.007475901704758326 0.006901687125762615 0.0032684584986973912 0 0 0
406 1 3100.0 9.476051476017679e-05 0.002274603467821957 0.000543474577826122 0.007370243171295428 0 0 0
407 1 3100.0 2.454495900439053e-05 0.015569999572806885 0.003567515478065144 0.006229480767579524 0 0 0
408 1 3100.0 6.595210876563077e-05 0.007723745088282546 0.013976216102477158 0.008138569636945594 0 0 0
409 1 3100.0 8.799666175764707e-05 0.01227503363737073 0.0031158731198112953 0.00036085676612628486 0 0 0
410 1 3100.0 1.0768854947295057e-05 0.0158948663462065 0.0075578077661908015 0.0018047125602319717 0 0 0
411 1 3100.0 4e-05 0.0004603866952734467 0.0034709279511142633 0.010560788764128755 0 0 0
412 1 3100.0 0.00013332061598470655 0.012369061995474122 0.008046022094470308 0.005177201167278625 0 0 0
413 1 3100.0 0.00012165877190728595 0.006397437511814183 0.014109437423345392 0.0018655737351748454 0 0 0
414 1 3100.0 0.00013393063795908176 0.0003193368080780367 0.013534552032074258 0.0010792667602245154 0 0 0
415 1 3100.0 4.4587447050990226e-05 0.018594663303944915 0.005968687498694968 0.01345063721344358 0 0 0
416 1 3100.0 9.0325753037729e-05 0.010469750492274915 0.014875487873333898 0.010438954593314363 0 0 0
417 1 3100.0 2.311097345475776e-05 0.013088489733959085 0.0026042734434350225 0.016865390883733282 0 0 0
418 1 3100.0 6.387772575254518e-06 0.011698708572743305 0.018143561414672108 0.007172427015142811 0 0 0
419 1 3100.0 5.8567426753113896e-05 0.009520101651450579 0.009366868654863367 0.016265987751284926 0 0 0
420 1 3100.0 5.889900612123479e-05 0.008670299013433178 0.016940924675593567 0.01135977469696034 0 0 0
421 1 3100.0 0.00011707990328910008 0.002348700992578214 0.012384062465855003 0.01015247453896884 0 0 0
422 1 3100.0 0.0001032537191725495 0.008045752065173701 0.01457804014420477 0.01868038551255518 0 0 0
423 1 3100.0 7.8223681740103e-06 0.01860894739310368 0.01780273669569815 0.005788483800144228 0 0 0
424 1 3100.0 5.57964727678098e-06 0.015540824288544834 0.014812932644494322 0.008828608704605185 0 0 0
425 1 3100.0 7.618702826085117e-05 0.014826982230213259 0.0032140361427711824 0.008872684198294728 0 0 0
426 1 3100.0 0.0001383878091052003 0.015959050591353444 0.00612961744449443 0.0017591190996509346 0 0 0
427 2 7870.0 0.0003 0.0024314494332142848 0.012910703185574118 0.014947561891026374 0 0 0
428 1 3100.0 0.0001116327133808766 0.01792069626609851 0.015966301577551988 0.009351824385988658 0 0 0
429 1 3100.0 6.92755662243573e-06 0.011605237499231848 0.007989593645593623 0.0152977890929793 0 0 0
430 1 3100.0 5.1176491183919e-05 0.00853325717132682 0.001380713225140522 0.007264773068162717 0 0 0
431 1 3100.0 0.00015845272915496168 0.008753400189785931 0.013019889411983563 0.017890873972396363 0 0 0
432 1 3100.0 4.383228995554036e-05 0.010421360033059653 0.010341979495993569 0.019036914872856574 0 0 0
433 1 3100.0 9.385526698654823e-06 0.0166286398941224 0.01174553298791453 0.0038859756523331804 0 0 0
434 1 3100.0 4e-05 0.015674342681107005 0.01937560879625743 0.008718839783745987 0 0 0
435 1 3100.0 1.30103416369292e-05 0.014470559777210776 0.0018823021827078419 0.015237136425688929 0 0 0
436 1 3100.0 5.340911024987899e-05 0.0067305257809614424 0.006203473857614299 0.01779465842402014 0 0 0
437 1 3100.0 7.37975021142214e-05 0.0064630802279266285 0.01183900236473216 0.01566043256498857 0 0 0
438 1 3100.0 7.456716982120717e-05 0.007873564928111584 0.012176646153716494 0.007167566326311276 0 0 0
439 1 3100.0 8.057097588650213e-06 0.00857354299448105 0.009491071374276929 0.003272165668371273 0 0 0
440 1 3100.0 8.561659585664445e-05 0.007622776799216198 0.005213974812841814 0.007961601482292247 0 0 0
441 1 3100.0 8.937231172250413e-05 0.002947705110459428 0.015302112921298773 0.014721805492907287 0 0 0
442 1 3100.0 9.025024812089433e-05 0.005803343881887809 0.00104580830969377 0.0037560590382651323 0 0 0
443 1 3100.0 1.2659947127201944e-05 0.01572734435929053 0.017579651743171488 0.015443965111963876 0 0 0
444 1 3100.0 1.5475725613414284e-05 0.009723483042829441 0.0003668297446342918 0.016398358365453024 0 0 0
445 1 3100.0 8.829363361755998e-05 0.007339051104452652 0.010637030893752713 0.008236145283528949 0 0 0
446 1 3100.0 4e-05 0.000902221971468187 0.010330238022875258 0.0016504029921118122 0 0 0
447 1 3100.0 4.359062704245947e-05 0.01715177695849529 0.0121295911812216 0.005546347117802207 0 0 0
448 1 3100.0 7.70531014893779e-06 0.015495530368649216 0.01741310016877653 0.0049656679147246224 0 0 0
449 1 3100.0 7.693322011040348e-06 0.008358965590951395 0.018496975783520393 0.0054868193988909 0 0 0
450 1 3100.0 0.0001223744503761349 0.007863549554906674 0.0024663453108150846 0.012485660294141653 0 0 0
451 1 3100.0 5.760707233396125e-05 0.01112248479886484 0.0042847459561795075 0.009167729671159447 0 0 0
452 1 3100.0 7.544188668291004e-05 0.0019395442231791107 0.0033056337743271698 0.015774391140247517 0 0 0
453 1 3100.0 8.042329135761292e-05 0.01952563473298925 0.018935352844148278 0.012358234494755423 0 0 0
454 1 3100.0 6.647699978719089e-06 0.0017955420163249683 0.004491891860365123 0.012714819014811028 0 0 0
455 1 3100.0 0.00022319628593845916 0.004431011092486893 0.012154736669258013 0.010131473210058419 0 0 0
456 1 3100.0 1.9083123440479863e-05 0.011767921033314817 0.010167616072641411 0.00660231137824211 0 0 0
457 1 3100.0 6.459916593472268e-05 0.00552630736875711 0.005418723263697829 0.01698404756094515 0 0 0
458 1 3100.0 3e-05 0.00017054569062683185 0.0005043392985270412 0.008129814939493182 0 0 0
459 1 3100.0 0.00011334202787366177 0.009930870855303999 0.000449516167226513 0.006427403734230234 0 0 0
460 1 3100.0 6.059612550634417e-05 0.002059581655002721 0.0007669462927461712 0.016922156327037512 0 0 0
461 1 3100.0 1.9045373362789685e-05 0.007088697944425161 0.0024611074710724355 0.005159025781680435 0 0 0
462 1 3100.0 7.671305655028423e-05 0.0058457057499069695 0.018211019186177447 0.004828192841189932 0 0 0
463 1 3100.0 0.000194061882554076 0.012406287915915647 0.00517682107673606 0.011041146418431463 0 0 0
464 1 3100.0 0.00015400544868343234 0.018016478103467817 0.00513244099093653 0.015516095226315328 0 0 0
465 1 3100.0 1.1487720857323742e-05 0.013213754636920644 0.013129271172988432 0.008927182947854119 0 0 0
466 1 3100.0 7.118815100799036e-06 0.0030112382287128454 0.006653080435971443 0.005458881102132979 0 0 0
467 1 3100.0 5.04932052601821e-05 0.008044262413775727 0.0014246669413802808 0.011754586552937601 0 0 0
468 1 3100.0 9.282726293910381e-05 0.005555263481607627 0.005847773247653162 0.0162739462957138 0 0 0
469 1 3100.0 6.793870118719776e-06 0.012440834528993758 0.01656001874432038 0.013475205806497241 0 0 0
470 1 3100.0 6.448550307550479e-05 0.004590753128081673 0.004085923862044159 0.005778042105085866 0 0 0
471 1 3100.0 8.271927457762835e-05 0.019540544798334315 0.016532762269215042 0.008215202481314403 0 0 0
472 1 3100.0 9.914965330673203e-05 0.0025344800027861203 0.01346295695388532 0.007798951560864127 0 0 0
473 1 3100.0 2.2332136237129832e-05 0.009175932237233838 0.006580339290783773 0.004171551258449786 0 0 0
474 1 3100.0 9.568251512707863e-06 0.0034560336771214967 0.015139536192646389 0.010359001313379268 0 0 0
475 1 3100.0 4.810782063235238e-05 0.014790067057835917 0.013486224506223301 0.01098543819736607 0 0 0
476 1 3100.0 4.3704601292447216e-05 0.016243827601265127 0.011759447011637081 0.01898799845600803 0 0 0
477 1 3100.0 2.9135153878819237e-05 0.009170635906700085 0.01537495056229623 0.005201378383251995 0 0 0
478 1 3100.0 0.0001530215297199886 0.0030524189996762436 0.014728468600639753 0.014330395339892468 0 0 0
479 1 3100.0 4e-05 0.013858658870757237 0.012987785058368836 0.01798066096731841 0 0 0
480 1 3100.0 0.00013168207973515708 0.005506634732753642 0.010206798584487387 0.0010681372348721688 0 0 0
481 1 3100.0 1.2001153592354442e-05 0.010126760938108777 0.003241695649821833 0.011486143314668401 0 0 0
482 1 3100.0 0.00013735235066429088 0.0003584662503320906 0.007453383852366574 0.0018060200798392658 0 0 0
483 1 3100.0 5.2689190222994396e-05 0.007939283507594999 0.004207209980224749 0.008171590522210156 0 0 0
484 1 3100.0 1.626277198096779e-05 0.011099260960167352 0.00316667648984835 0.01349591412252146 0 0 0
485 1 3100.0 0.00012614484094643973 0.002337445871504431 0.00824726459656189 0.01754506823652361 0 0 0
486 1 3100.0 7.878746294213216e-05 0.013455389602721234 0.00018780786526868647 0.009865471612620011 0 0 0
487 1 3100.0 7.472558542724165e-05 0.01963808681744366 0.006433005536880223 0.01697935530485818 0 0 0
488 1 3100.0 0.00010279168903301439 0.004328038980600599 0.007907390910108818 0.009009867272367814 0 0 0
489 1 3100.0 8.970790270254866e-05 0.01853584596286555 0.007368271303539004 0.010532215206157417 0 0 0
490 1 3100.0 0.00012071281399629949 0.00028003669720503394 0.016874679561009857 0.0071804665703237925 0 0 0
491 1 3100.0 0.0002545871997826181 0.005774534676300563 0.0003974922423502802 0.01733034200769669 0 0 0
492 1 3100.0 5.0331860690841775e-05 0.01803833547918417 0.0013936651419599703 0.013407023465015011 0 0 0
493 1 3100.0 7.107744939544934e-05 0.016668909838405778 0.016531765053171846 0.013673860175470376 0 0 0
494 1 3100.0 8.013764847062071e-06 0.0070312575476680255 0.010983856533828365 0.007255318567934034 0 0 0
495 1 3100.0 1.579360739852231e-05 0.010165326567413003 0.0037225498353057975 0.0021382788202367747 0 0 0
496 1 3100.0 8.294634707583491e-05 0.013453938636225985 0.0023015186280621177 0.014557073311279646 0 0 0
497 1 3100.0 6.207941471605737e-05 0.01820258076750682 0.006868993220621103 0.004036508363647497 0 0 0
498 1 3100.0 7.175928936657542e-05 0.010228547589695894 0.009836851988854133 0.0024001860482705103 0 0 0
499 1 3100.0 3e-05 0.006451992256878087 0.01575963448991878 0.01049498299538425 0 0 0
500 1 3100.0 9.505569292861115e-05 0.012981063354827564 0.006047788184398312 0.009214720905795363 0 0 0
501 1 3100.0 6.456074384791048e-06 0.0036801492976012177 0.0008365282070162559 0.007101202703902201 0 0 0
502 1 3100.0 0.00011221975281406658 0.006025876781004018 0.010503050938884661 0.0174804187234637 0 0 0
503 1 3100.0 6.599262408341376e-05 0.01680338860708164 0.016374294233942356 0.00931579702738035 0 0 0
504 1 3100.0 7.38641746290624e-06 0.0008687375103638039 0.0014284686454270946 0.008633062234956721 0 0 0
505 1 3100.0 0.00010733607706176675 0.0025617791041837217 0.000688790484533792 0.005896263722763396 0 0 0
506 1 3100.0 6.96652215303312e-05 0.009292859004760175 0.017463562194032216 0.008312508985936743 0 0 0
507 1 3100.0 3e-05 0.005580996917334497 0.00825607871136404 0.017619746602796728 0 0 0
508 1 3100.0 0.00010207347613214373 0.008900216071686992 0.018777448545289736 0.00244043176399735 0 0 0
509 1 3100.0 0.00012793581371610052 0.0022233151786264635 0.0182871336342341 0.007116693405467898 0 0 0
510 1 3100.0 3e-05 0.010174818950713779 0.00424401154833432 0.002923974207206303 0 0 0
511 1 3100.0 1.4311099306130856e-05 0.017754364128908965 0.017347386123505667 0.016286475997349836 0 0 0
512 1 3100.0 1.422479924700556e-05 0.017783614260283836 0.0012707456499286484 0.012426412124648501 0 0 0
513 1 3100.0 1.3162205186563052e-05 0.010337740330219633 0.01615974003616977 0.00485853120255279 0 0 0
514 1 3100.0 9.538976395081457e-05 0.015235948963382656 0.018739498972960397 0.016846716398547807 0 0 0
515 1 3100.0 7.051138926243818e-06 0.00177074319380138 0.016471186828267894 0.010996932794051947 0 0 0
516 1 3100.0 7.233047529566328e-05 0.00272929881548589 0.008547974771356994 0.0028118797778320056 0 0 0
517 1 3100.0 9.644656844352027e-05 0.009580455742777442 0.01573414904132009 0.014587176450553687 0 0 0
518 1 3100.0 7.217848546710555e-05 0.01223204553727691 0.006597153093569283 0.012978106648974006 0 0 0
519 1 3100.0 3e-05 5.619789706083468e-05 0.01052767433696474 0.005455318373573981 0 0 0
520 1 3100.0 4.6058448137606795e-05 0.006842646970832583 0.0117166087594109 0.01346597968466501 0 0 0
521 1 3100.0 0.0002355091345891867 0.006181704123847234 0.0014644082496242021 0.018241164376570994 0 0 0
522 1 3100.0 7.834663964700267e-05 0.0019056935000109037 0.015530786189870993 0.018001313892759753 0 0 0
523 1 3100.0 4.372330769841223e-05 0.010417925862465954 0.014886215305411479 0.0027947474089345895 0 0 0
524 1 3100.0 1.3499254650873261e-05 0.016770338117421166 0.012322555375671986 0.010477464357647858 0 0 0
525 1 3100.0 1.0658972828261487e-05 0.011361737789261854 0.018299719966702516 0.0085446243667063 0 0 0
526 1 3100.0 4.251997829069194e-05 0.0023072578552672746 0.003043306457542626 0.014678919059463977 0 0 0
527 1 3100.0 6.228978358031943e-05 0.016333589210666515 0.012889010992087238 0.01752561034658446 0 0 0
528 1 3100.0 0.00014388265436253311 0.01638709650995441 0.0033763005897426653 0.0003813134213136413 0 0 0
529 1 3100.0 1.7003127606926897e-05 0.01382279745575307 0.01171981938956768 0.005762609812097964 0 0 0
530 1 3100.0 4.862668180657145e-06 0.006497832984593024 0.0030795651691754283 0.008083127326811353 0 0 0
531 1 3100.0 3.964873782686055e-06 0.004499646161017687 0.0012621247657921904 0.005833315733045921 0 0 0
532 1 3100.0 0.0001498349023744552 0.010761761853261904 0.004357748423969595 0.0031165805300985066 0 0 0
533 1 3100.0 1.2533512167259623e-05 0.01395469897299761 0.0091007674365436 0.0038500035473391044 0 0 0
534 1 3100.0 1.5226783982180791e-05 0.013349415573549704 0.0004854481638447481 0.017198667713057475 0 0 0
535 1 3100.0 0.00010149791547549655 0.00012015972147572069 0.014771054472124968 0.0022170501974375224 0 0 0
536 1 3100.0 1.1107014847281537e-05 0.014257488667801896 0.017589741677957436 0.008985700322471181 0 0 0
537 1 3100.0 5.8153727973828705e-06 0.01445957512460771 0.014380397634527605 0.0027627364708858247 0 0 0
538 1 3100.0 8.045852047113174e-05 0.010852949414910515 0.009449473513805267 0.018668633526673153 0 0 0
539 1 3100.0 7.26336900053342e-05 0.007085440267047722 0.00457767482078397 0.0026942920814604318 0 0 0
540 1 3100.0 5.75027122297745e-05 0.008917380475522905 0.01587432350391431 0.017224639641759524 0 0 0
541 1 3100.0 0.00010102884473131285 0.00223324266272088 0.0022543608388194292 0.004418359028045555 0 0 0
542 1 3100.0 4.454771445350048e-05 0.0026982525070013163 0.018798769312796722 0.005471803406501099 0 0 0
543 1 3100.0 6.380718085939472e-06 0.013614082512716171 0.0018289575736495655 0.018774673597944082 0 0 0
544 1 3100.0 8.805972630131246e-05 0.014461503681612007 0.017244516995566048 0.004217811283028799 0 0 0
545 1 3100.0 7.811637913315621e-05 0.004317212128561172 0.01388299932606764 0.011789140402739647 0 0 0
546 1 3100.0 1.4810800686991724e-05 0.0188670571758691 0.018406356237571933 0.005122385806425668 0 0 0
547 1 3100.0 0.00017465185570381394 0.012537729947400442 0.01757895064399092 0.013533999284645718 0 0 0
548 1 3100.0 9.008161301117728e-05 0.018204021665983675 0.01965718616246186 0.0008262938057339842 0 0 0
549 1 3100.0 0.00011289291951252235 0.00428871834926993 0.015574136234318733 0.01481661866183381 0 0 0
550 1 3100.0 0.00012310361985112104 0.009493704136932929 0.002766165237705334 0.009474182469670897 0 0 0
551 1 3100.0 9.439530532471203e-05 0.008590787186060633 0.004729437348164063 0.01698151261328701 0 0 0
552 1 3100.0 9.830718615728533e-05 0.01787321498632979 0.012704790723930498 0.019295996365111322 0 0 0
553 1 3100.0 5.7224992916411356e-05 0.01325928786417827 0.0015680626618999655 0.0058725153838269355 0 0 0
554 1 3100.0 4.300486663611807e-05 0.008324348331406115 0.009428561018680304 0.006400370343912349 0 0 0
555 1 3100.0 0.00020772553674497902 0.008390249423963604 0.014535901396314485 0.01077483562316457 0 0 0
556 1 3100.0 0.00012741012452284101 0.015760846957464197 0.0029101474314098294 0.01837208072617434 0 0 0
557 1 3100.0 8.702970403209053e-05 0.013429783201382169 0.008798018567636082 0.014598085576981088 0 0 0
558 1 3100.0 0.00011220269282897896 0.0119416474555517 0.008547559524302051 0.01682814312821524 0 0 0
559 1 3100.0 1.0460610402995266e-05 0.006339484623433465 0.004286716609055572 0.006625749333246636 0 0 0
560 1 3100.0 6.486438330214451e-05 0.0034312591873820394 0.0010557754995246238 0.006352676238410347 0 0 0
561 1 3100.0 9.765599016688674e-05 0.017271857021373255 0.014701565198783679 0.011614089729291913 0 0 0
562 1 3100.0 0.0001279834745079339 0.0037970858801249165 0.018621533270685595 0.008691601796392877 0 0 0
563 1 3100.0 3e-05 0.010162802719420433 0.017262843345590997 0.005098261627426822 0 0 0
564 1 3100.0 0.00017243541361116544 0.0027958149807421825 0.00781792615980625 0.015252486338164738 0 0 0
565 1 3100.0 6.520064688751403e-05 0.003386056139763439 0.011679361480867725 0.002815913905981252 0 0 0
566 1 3100.0 5.774385022876911e-06 0.0002428257035504113 0.0074557530875927775 0.007913861116504375 0 0 0
567 1 3100.0 0.00011897107714265526 0.017174876776980593 0.013094645203140005 0.005786387788010214 0 0 0
568 1 3100.0 9.061221695364312e-06 0.010926705920579633 0.005871954618977192 0.01459729963790269 0 0 0
569 1 3100.0 2.0698202050093037e-05 0.016460982611983817 0.012920456171504648 0.0008546880710265794 0 0 0
570 1 3100.0 0.0001725599611701279 0.0017443483867797648 0.003221981065800487 0.006536719647092799 0 0 0
571 1 3100.0 9.953897083273951e-05 0.012241312589031968 0.01833480561398888 0.014367192997038532 0 0 0
572 1 3100.0 1.2967617152475211e-05 0.014744901396912738 0.004832406308717874 0.001538578319322522 0 0 0
573 1 3100.0 4e-05 0.0039465152714206215 0.009323234735708836 0.009715169831671944 0 0 0
574 1 3100.0 8.072943970792435e-05 0.011486759822584855 0.006900327147628738 0.003898046858446994 0 0 0
575 1 3100.0 3e-05 0.01699581727461704 0.00798828631503919 0.008290942521673643 0 0 0
576 1 3100.0 2.5853591462238166e-05 0.004587623185238589 0.003498675359829272 0.0033843575385000845 0 0 0
577 1 3100.0 7.241360660568461e-05 0.002893174659487997 0.0090703107156023 0.013951647872789987 0 0 0
578 1 3100.0 4e-05 0.009329517060680793 0.010625267370860069 0.009825918736016985 0 0 0
579 1 3100.0 4e-05 0.01837583736244375 0.010345056931799143 0.006730958856314209 0 0 0
580 1 3100.0 0.0001619720983782259 0.014349014527142361 0.011391539615548596 0.015083965253072183 0 0 0
581 1 3100.0 5.613878147881616e-06 0.00275125938832528 0.013671437481697534 0.018580717333422713 0 0 0
582 1 3100.0 7.606857864206417e-05 0.007306182602537437 0.01917588727753968 0.004259007253631442 0 0 0
583 1 3100.0 9.09698914787018e-05 0.00269443066224769 0.015757531860451115 0.01620512760324859 0 0 0
584 1 3100.0 3e-05 0.00620239840739219 0.010300231235490806 0.004437165376191524 0 0 0
585 1 3100.0 0.00010643760166020741 0.002972132660591866 0.005250940270512908 0.014772196484282154 0 0 0
586 1 3100.0 0.00013491771131962437 0.0030052573294761637 0.002914059671376322 0.0022143701984177907 0 0 0
587 1 3100.0 3.6272838251911034e-06 0.018390627288275455 0.007163819709684008 0.013443849178532273 0 0 0
588 1 3100.0 9.50352266913752e-06 0.0032643996291477143 0.01644774759689574 0.011309889099707265 0 0 0
589 1 3100.0 6.857415619023654e-05 0.016573839636294784 0.010778923888965466 0.009259159891057658 0 0 0
590 1 3100.0 4e-05 0.010529921910840885 0.014540166657430185 0.01534048166731988 0 0 0
591 1 3100.0 0.0001996784393499355 0.018357728856233314 0.012713960581342077 0.007124580426268893 0 0 0
592 1 3100.0 5.737478829244738e-05 0.01334004859925486 0.0169095943991105 0.017159011204033525 0 0 0
593 1 3100.0 3e-05 0.011366089910856908 0.013263132698932046 0.004441099713024482 0 0 0
594 1 3100.0 8.89458459849348e-06 0.015437833318605272 0.005043342651037276 0.01703959369635303 0 0 0
595 1 3100.0 4.337845741361822e-05 0.001538291908169177 0.0017725158146580215 0.01992079204587843 0 0 0
596 1 3100.0 2.0035560103491287e-05 0.0026150496582606564 0.010432024963039249 0.007308157491115327 0 0 0
597 1 3100.0 5.280083242443982e-05 0.0023614781576759623 0.008036358809298243 0.006719945196080323 0 0 0
598 1 3100.0 0.00014925839168264054 0.010192780805831097 0.00776575317107952 0.014406307943678644 0 0 0
599 1 3100.0 0.00022660351546154375 0.003615826693706113 0.010024888664247911 0.009251044714483363 0 0 0
600 1 3100.0 6.165246879968801e-06 0.018634861448107765 0.005638660424765639 0.015051405404642504 0 0 0
601 1 3100.0 0.0001526497513886286 0.008086438709414046 0.010766170487645534 0.014476365117859111 0 0 0
602 1 3100.0 0.00014837261521743483 0.0003989332879958897 0.01966179008560545 0.008731798228900519 0 0 0
603 1 3100.0 0.00014649809889577157 0.01950646169808359 0.017477332091005143 0.01365501716190437 0 0 0
604 1 3100.0 1.286934069555307e-05 0.009638226293551794 0.01075567348667434 0.005745523753263416 0 0 0
605 1 3100.0 9.843991685211416e-06 0.005138171335632295 0.002170512860107808 0.007950170420939774 0 0 0
606 1 3100.0 3.4214305972295996e-06 0.0028391876641748717 0.0029553754725630643 0.007221910352737534 0 0 0
607 1 3100.0 0.00021087217077548305 0.0013038196901659451 0.012830953531984109 0.018214843860363324 0 0 0
608 1 3100.0 0.000175983169928531 0.011904732795644232 0.0023024797606145085 0.0035105325089265023 0 0 0
609 1 3100.0 0.0001740284867627997 0.003619271285051675 0.0008916284431809844 0.003617540012818573 0 0 0
610 1 3100.0 7.83280114329459e-05 0.01680777914822605 0.019791573933050588 0.01309560528728921 0 0 0
611 1 3100.0 0.0002481608624602268 0.01295331270055895 0.014511984262034669 0.002167890589676073 0 0 0
612 1 3100.0 8.664806218661503e-05 0.003394923971273139 0.008241790650885032 0.005364790944860166 0 0 0
613 1 3100.0 1.6678921191715704e-05 0.011756680296798227 0.00947457898152781 0.004717228997595297 0 0 0
614 1 3100.0 1.5196961643103894e-05 0.018185101100480078 0.001973631674165192 0.007225012659450014 0 0 0
615 1 3100.0 2.231616487707251e-05 0.00318190056780663 0.006150079768451827 0.017301859305784192 0 0 0
616 1 3100.0 5.944569114947315e-05 0.017710138935955275 0.0035320435840931544 0.0037666662710187982 0 0 0
617 1 3100.0 0.00010319128122137597 0.014784339519644939 0.01171704993700842 0.017233987668806423 0 0 0
618 1 3100.0 8.00008621493509e-05 0.016655003612165084 0.0027745476997148508 0.018178567905506857 0 0 0
619 1 3100.0 0.0001371996830611444 0.013826266972529469 0.008242425246867647 0.019467365037101267 0 0 0
620 1 3100.0 7.532718434881832e-05 0.015131753445676603 0.010308321963506986 0.003419746617106701 0 0 0
621 1 3100.0 1.2198167546392305e-05 0.0015376586679968758 0.0021236680638971914 0.00625485322360796 0 0 0
622 1 3100.0 3e-05 0.013002594147999003 0.00829818567407731 0.006735003508969702 0 0 0
623 1 3100.0 8.618813965274481e-05 0.007109354996343674 0.013610928233799236 0.015481935061117988 0 0 0
624 1 3100.0 4.32391077358753e-05 0.005097441260384522 0.019207675621037642 0.0023810047653379965 0 0 0
625 1 3100.0 0.00010711251068010347 0.018545574974062718 0.003182367096938262 0.01924063605049654 0 0 0
626 1 3100.0 1.0657254569230875e-05 0.011482017733608992 0.019050567708329018 0.006560476303836213 0 0 0
627 1 3100.0 6.982461830848724e-05 0.014874454731150883 0.01193464044370638 0.016618740608068304 0 0 0
628 1 3100.0 1.8099794139197545e-05 0.003135181375040966 0.006105355817707459 0.011174940817792722 0 0 0
629 1 3100.0 4.584215967066116e-05 0.018941280698781066 0.01253058283849039 0.012355882513082365 0 0 0
630 1 3100.0 3e-05 0.012766388302958252 0.015426044925903243 0.019044383045700712 0 0 0
631 1 3100.0 0.00011197755115812892 0.006668661099217791 0.002909506126914174 0.006842540226381584 0 0 0
632 1 3100.0 8.333336425471348e-05 0.0067892564623460395 0.017800470496375773 0.00183727120303934 0 0 0
633 1 3100.0 9.005428089585977e-05 0.019441178587457114 0.011692068934139736 0.017448248637982725 0 0 0
634 1 3100.0 1.9390129761005793e-05 0.0034099623128227446 0.012581055020900078 0.019426497071859547 0 0 0
635 1 3100.0 7.190572419568084e-05 0.018117857204653455 0.01221954643159948 0.009272464140609716 0 0 0
636 1 3100.0 6.759576809993546e-06 0.004043560339169871 0.0041916731497799314 0.0043730012224435025 0 0 0
637 1 3100.0 0.00011570629769813027 0.013998666055000587 0.010200905000780101 0.014744242339822284 0 0 0
638 1 3100.0 0.00012255705502788223 0.01679353828117478 0.00975118553174518 0.005148368598372503 0 0 0
639 1 3100.0 3e-05 0.0026644100085122494 0.005243112449111388 0.013106302764761575 0 0 0
640 1 3100.0 0.00015412386659048363 0.011602139020662892 0.007958985782202093 0.003978008981968947 0 0 0
641 1 3100.0 0.00015496416957595324 0.01575461091832248 0.010901921432092718 0.018417792184430026 0 0 0
642 1 3100.0 1.1371119335356675e-05 0.0034229046138273284 0.004577241876005516 0.000997587707710482 0 0 0
643 1 3100.0 0.00018314218674511407 0.003487595371439037 0.011551899579756717 0.005657430956175613 0 0 0
644 1 3100.0 6.018620185158342e-05 0.00884885322349086 0.015301357634605321 0.010550811084735554 0 0 0
645 1 3100.0 0.00012131422813010195 0.00511764872804963 0.008715923573295144 0.007288295134598283 0 0 0
646 1 3100.0 5.5895789087639705e-05 0.010319925029152093 0.00180492624975849 0.007648435580631934 0 0 0
647 1 3100.0 0.00012233176914839178 0.005469030831288641 0.012899293607186 0.0162299898653724 0 0 0
648 1 3100.0 8.359622147218525e-05 0.019869361131293253 0.018561634893132808 0.01257930372851735 0 0 0
649 1 3100.0 4e-05 0.0036662976920483438 0.01783671405466115 0.008613985486486985 0 0 0
650 1 3100.0 1.4819462580440659e-05 0.008342957354667281 0.003843446034158315 0.01122615018652683 0 0 0
651 1 3100.0 7.063453487107816e-05 0.007133935496672257 0.008644439037470506 0.010108411739458492 0 0 0
652 1 3100.0 9.447336543493848e-05 0.0016918430594657747 0.018422157891416373 0.005662255621479461 0 0 0
653 1 3100.0 0.0002437650225415572 0.017037820280787652 0.006944893486443991 0.009522019917389454 0 0 0
654 1 3100.0 8.002156626788204e-05 0.009594008968301072 0.016068439916762118 0.006715489031129716 0 0 0
655 1 3100.0 8.7649787106513e-05 0.0011776007803584651 0.003751509450883047 0.001315572375666187 0 0 0
656 1 3100.0 1.1092631189406441e-05 0.0056406139775447795 0.01645350103178698 0.006552909389723161 0 0 0
657 1 3100.0 0.00012624501507065895 0.01027091891948354 0.002290577994800234 0.001652833639605595 0 0 0
658 1 3100.0 0.00010694985011909598 0.01770591751243209 0.003323762304027034 0.011235193470900464 0 0 0
659 1 3100.0 9.962177111084099e-05 0.016124455515358183 0.019271174043477064 0.00894000205703316 0 0 0
660 1 3100.0 8.30147293398123e-05 0.015626046572220047 0.0016854531271752354 0.017404248513994306 0 0 0
661 1 3100.0 8.217699542293961e-05 0.002165339768763578 0.0024614158790934814 0.00610754627678663 0 0 0
662 1 3100.0 0.00013978900699750669 0.019774109732495316 0.0016190194545348889 0.0005052427431481852 0 0 0
663 1 3100.0 0.00010490290362342974 0.0025533584189875082 0.00784895215613219 0.0037450066614304464 0 0 0
664 1 3100.0 0.00026534139592812253 0.013282144788051288 0.018632057835693657 0.004399873129405226 0 0 0
665 1 3100.0 9.581658022147513e-05 0.012830672692168364 0.015074910031955128 0.007593242381746311 0 0 0
666 1 3100.0 1.55996398276258e-05 0.014280427385702907 0.010076313055322595 0.003466732877139232 0 0 0
667 1 3100.0 0.00012637818712531087 0.015193779440260626 0.016890376110971574 0.015120921392986163 0 0 0
668 1 3100.0 4.92815842806507e-05 0.003438109862502265 0.016461721947165126 0.01809963037037847 0 0 0
669 1 3100.0 8.016461067818169e-05 0.01388379928508249 0.0028572349618773032 0.006033895691002338 0 0 0
670 1 3100.0 0.0002168512674861578 0.008715595464123881 0.007073313709797906 0.011353087576952157 0 0 0
671 1 3100.0 9.747131847142239e-05 0.007804521489563014 0.011639140092092883 0.013145780503015677 0 0 0
672 1 3100.0 8.865174001448266e-05 0.004270552898367004 0.017052077762761256 0.004043988787297277 0 0 0
673 1 3100.0 1.471523509909527e-05 0.0127622429814166 0.01627813649169777 0.0020352065215160794 0 0 0
674 1 3100.0 1.5160746382945857e-05 0.017756862232447882 0.012451046569247682 0.005508348853926103 0 0 0
675 1 3100.0 1.8207451156667777e-05 0.014238871713762714 0.0052308281764145 0.015640620054871955 0 0 0
676 1 3100.0 2.1210743793483837e-05 0.012958201367695625 0.01660468974707463 0.007509420948052082 0 0 0
677 1 3100.0 0.00024684417143880453 0.008473534795671707 0.006535481798536364 0.010427636717662475 0 0 0
678 1 3100.0 2.70085801579425e-06 0.001809950872957162 0.005028866423710735 0.0018819343482670218 0 0 0
679 1 3100.0 0.000139359136529428 0.002468328944096041 0.003853827229525404 0.01954185144292436 0 0 0
680 1 3100.0 9.930556675230584e-05 0.011744650311440296 0.01000679992133331 0.010271739549374383 0 0 0
681 1 3100.0 0.00018729074394802683 0.012795284231034917 0.01877013608645614 0.012272087102351042 0 0 0
682 1 3100.0 8.737448559238379e-05 0.012963077617460614 0.004472734107614741 0.008790533005462889 0 0 0
683 1 3100.0 7.376436641277921e-05 0.006362482059144334 0.002570332888895118 0.009361654851011614 0 0 0
684 1 3100.0 6.795529225756698e-05 0.010546340357947681 0.001451128828594722 0.016579859172061916 0 0 0
685 1 3100.0 1.0212509651510234e-05 0.0131464747056367 0.008171498546674209 0.006832378836933942 0 0 0
686 1 3100.0 7.789971282826775e-05 0.006970568926191381 0.0008575718076736609 0.012700893351927997 0 0 0
687 1 3100.0 4e-05 0.007808348750511511 0.014324828114860284 0.007825792491785518 0 0 0
688 1 3100.0 0.00012457084152286228 0.00746587255924603 0.007131655035740976 0.01724187954065796 0 0 0
689 1 3100.0 1.7863865753126095e-05 0.014919306518530306 0.00914987094015743 0.0002395801012256159 0 0 0
690 1 3100.0 2.3971904763523208e-05 0.0004631046720546286 0.0048297171556321615 0.011166170194159178 0 0 0
691 1 3100.0 0.0001671295145106869 0.006878583985950999 0.016524466833416046 0.017720814378462527 0 0 0
692 1 3100.0 7.266776278428859e-05 0.014927670793725834 0.01883701514400686 0.008663502243636217 0 0 0
693 1 3100.0 4e-05 0.000670376373858145 0.0043536257594691315 0.018737115699124205 0 0 0
694 1 3100.0 0.0001272095032822693 0.004696613784619003 0.002380640536591756 0.012382319777889316 0 0 0
695 1 3100.0 7.86413867774698e-05 0.011083156495307275 0.0018614970474559727 0.014340770456636323 0 0 0
696 1 3100.0 4.812151273530866e-05 0.008646122362429742 0.0032119942963728674 0.004401226592560569 0 0 0
697 2 7870.0 0.0003 0.006414623895513947 0.01961367809445532 0.011338553286386903 0 0 0
698 1 3100.0 9.653316758544889e-05 0.01937172784222832 0.010498146097293892 0.008856835337210931 0 0 0
699 1 3100.0 5.763293446605935e-05 0.016469480245764008 0.018218028588526808 0.006919809001459519 0 0 0
700 1 3100.0 8.661217334202324e-06 0.009980516675631825 0.006008209514182244 0.0036924450368027903 0 0 0
701 1 3100.0 8.469626023246594e-05 0.0031919923584250516 0.014044115171780525 0.0037483299681078347 0 0 0
702 1 3100.0 5.5597076283366935e-05 0.004979447608663399 0.01322346597420135 0.006217495206876863 0 0 0
703 1 3100.0 9.363794549028059e-05 0.005411268149522959 0.0035304806230123 0.0041709851111553994 0 0 0
704 1 3100.0 0.0001401796584732673 0.010724397914783844 0.017845679020050857 0.010609811531009768 0 0 0
705 1 3100.0 6.804486426623272e-06 0.019718840895576368 0.019777019507176814 0.012900906146556593 0 0 0
706 1 3100.0 0.00010191135587608763 0.010617118094034449 0.013336838178693319 0.006627302903791644 0 0 0
707 1 3100.0 7.294572640546937e-05 0.012575767561868014 0.009590588656802256 0.013863788128869186 0 0 0
708 1 3100.0 1.0259664218593894e-05 0.012735355701311943 0.002149269672355614 0.002974117635356482 0 0 0
709 1 3100.0 8.281305570943407e-06 0.014312615025874286 0.005194433544926302 0.0035766092195736177 0 0 0
710 1 3100.0 1.939762828753772e-05 0.002824968930716694 0.010856130568639672 0.004700211557390777 0 0 0
711 1 3100.0 1.8116379477625535e-05 0.006309667627016397 0.0009805615927919648 0.001150865127947823 0 0 0
712 1 3100.0 0.00012566079980742167 0.00644934848520782 0.0035914847562611182 0.019657676557079187 0 0 0
713 1 3100.0 3e-05 0.014693803309689859 0.006501144673753728 0.016791072593680897 0 0 0
714 1 3100.0 1.6416659431055906e-05 0.015481931525034836 0.0017208535668366786 0.01670460215352546 0 0 0
715 1 3100.0 0.00014433806922066952 0.005567897890626779 0.0037554778220575714 0.0116009503976837 0 0 0
716 1 3100.0 0.00015829714362065905 0.014842196062092066 0.016485293606684815 0.004005172100641213 0 0 0
717 1 3100.0 0.00014463680862728982 0.006389907185029527 0.008797202454543816 0.011629716331769482 0 0 0
718 1 3100.0 4.895167124459903e-05 0.00376015529751498 0.017484035258551668 0.008801486426368209 0 0 0
719 1 3100.0 5.5159479774288425e-05 0.0161412399897115 0.0026140867347677105 0.004356156901855708 0 0 0
720 1 3100.0 1.5542951754687118e-05 0.017911692942949618 0.0083638081027241 0.01898754744881409 0 0 0
721 1 3100.0 9.442859858127997e-05 0.019689045993893522 0.014441615842039603 0.0073016486784772605 0 0 0
722 1 3100.0 0.00012754755995855106 0.007722137333227081 0.003094622725753644 0.008824878104160236 0 0 0
723 1 3100.0 7.90057419277557e-06 0.002525233075715276 0.0005130974685815763 0.006412535200557084 0 0 0
724 1 3100.0 0.00011558534818787781 0.010426998161048917 0.008252908436218702 0.008866544475532034 0 0 0
725 1 3100.0 0.00014680073445905755 0.009897442933829317 0.012217649334142388 0.005482411483553859 0 0 0
726 1 3100.0 4.623622609616407e-05 0.006791804478044987 0.017061077394505585 0.014425263320075014 0 0 0
727 1 3100.0 0.00010514852420020995 0.005138525891473294 0.014520992948915207 0.0006877907076258719 0 0 0
728 1 3100.0 4.770032685738839e-05 0.01241712472459983 0.0019313680192620318 0.0027121073902167526 0 0 0
729 1 3100.0 5.974079410687481e-05 0.018464731931738063 0.009134119061270452 0.016078809688721427 0 0 0
730 1 3100.0 3e-05 0.015755363228898443 0.014986358791214752 0.019615801728705556 0 0 0
731 1 3100.0 1.000566251240612e-05 0.01110770182262023 0.009276513444687015 0.004529336011396534 0 0 0
732 1 3100.0 5.784450195185449e-05 0.00823478909107676 0.007883313495599412 0.01814275218242023 0 0 0
733 1 3100.0 2.3991871565660912e-05 0.007810030689664899 0.0049871039430303184 0.012765110137477933 0 0 0
734 1 3100.0 9.193764507132947e-06 0.0016548500256050032 0.006809271786759261 0.012913472621074864 0 0 0
735 1 3100.0 0.00012690010831049395 0.018028951149366534 0.004774862180069475 0.016705343617512407 0 0 0
736 1 3100.0 1.620813762143044e-05 0.0019302788262420523 0.01231696820834648 0.019079782384667725 0 0 0
737 1 3100.0 2.466969085525665e-05 0.018018216202148975 0.015133709000640141 0.008502792321193203 0 0 0
738 1 3100.0 1.4149991112270596e-05 0.011690402433308955 0.010033713573854863 0.006174359502522587 0 0 0
739 1 3100.0 1.4095228179345757e-05 0.009947634591024056 0.017744861528736167 0.0038153862565498842 0 0 0
740 1 3100.0 0.0001309928401310159 0.004011961841513822 0.009822342094346296 0.010359093795826047 0 0 0
741 1 3100.0 4.797750874245421e-05 0.016388327028450736 0.012452043743662128 0.0014045606653935296 0 0 0
742 1 3100.0 0.0001051557080204557 0.004718410345681017 0.01464382025204066 0.014522544413887076 0 0 0
743 1 3100.0 4.674436901673014e-05 0.012168288763898557 0.015869211943500838 0.016395037063171924 0 0 0
744 1 3100.0 0.00016836724578393346 0.013959674241381293 0.018957240132805985 0.0020059004312188767 0 0 0
745 1 3100.0 6.417286817401089e-06 0.018205798283142227 0.0067945100706296915 0.01781097331476966 0 0 0
746 1 3100.0 2.1753798629343402e-05 0.003695491996452241 0.013907859388562002 0.012726633004418144 0 0 0
747 1 3100.0 1.2252086395118975e-05 0.001162264374575868 0.014964506776353399 0.002956403562535202 0 0 0
748 1 3100.0 6.356302855891413e-05 0.00991791056080594 0.00476377655981823 0.016610971091312685 0 0 0
749 1 3100.0 9.947740345334342e-05 0.006221495961702421 0.007748233726953826 0.003471999904143877 0 0 0
750 1 3100.0 8.407920022189103e-05 0.01888452594553324 0.01164844271394727 0.001402527688741135 0 0 0
751 1 3100.0 1.2558215711281371e-05 0.006399562510179542 0.005631417802473082 0.007344240141054788 0 0 0
752 1 3100.0 0.0001073393709574277 0.016586640383370172 0.012777953747846082 0.006579590508963466 0 0 0
753 1 3100.0 6.0323693840426863e-05 0.006602432791527782 0.0037955552067504856 0.014315258047771123 0 0 0
754 1 3100.0 6.962439959566399e-06 0.017857894237192723 0.0028621857964652468 0.00035452677042698905 0 0 0
755 1 3100.0 6.826887930122831e-06 5.7474351291110824e-05 0.005864816915670676 0.009326041370357646 0 0 0
756 1 3100.0 0.00020995046037954501 0.012041498981916178 0.01974937412334756 0.011618685296951705 0 0 0
757 1 3100.0 0.00010325722669155601 0.017244844576585042 0.005919011559835027 0.019533178995209552 0 0 0
758 1 3100.0 5.2485349989118676e-05 0.003922809967936336 0.010672860179265489 0.009062295649452884 0 0 0
759 1 3100.0 8.686285083681704e-06 0.015396486725880681 0.015279330993827724 0.012808655510203312 0 0 0
760 1 3100.0 0.00010623707661939643 0.0033227923128033134 0.005175818372004954 0.00020954825399129395 0 0 0
761 1 3100.0 3e-05 0.019676085335454903 0.010246867919698907 0.013290020920858708 0 0 0
762 1 3100.0 2.0379417000973613e-05 0.016896025461886423 0.013597235024585362 0.0014375536083797858 0 0 0
763 1 3100.0 4e-05 0.01578372818862893 0.016353943041432523 0.0009688441385618837 0 0 0
764 1 3100.0 9.071028432263118e-05 0.0007802552874878275 0.011968216383018683 0.018805630408619246 0 0 0
765 1 3100.0 0.00011162599665242926 0.005036334338341082 0.009676905742263948 0.01508261534738378 0 0 0
766 1 3100.0 8.374622783685657e-05 0.016356551519146067 0.009688552695568646 0.0032217821395258673 0 0 0
767 1 3100.0 0.0001772906990170491 0.01700432760096911 0.0072534917918509354 0.016161864839271414 0 0 0
768 1 3100.0 1.5244920403077184e-05 0.018831534280265884 0.005269692539165563 0.0065687905538726575 0 0 0
769 1 3100.0 4e-05 0.014015430805748203 0.01442505787463053 0.010919070138005537 0 0 0
770 1 3100.0 0.00021151264102642727 0.013934261768285758 0.01644347116340448 0.017352766299984924 0 0 0
771 1 3100.0 0.00011026305920068741 0.007031096989651458 0.011280175898993031 0.0070853015936572315 0 0 0
772 1 3100.0 1.797517836888133e-05 0.013305102548905844 0.0015731453810579146 0.0035949316108501543 0 0 0
773 1 3100.0 0.00012319650314386233 0.009524697693259587 0.010462207801434935 0.004337875390552255 0 0 0
774 1 3100.0 5.448335438014949e-05 0.007264314108991166 0.004811161900918058 0.004676471117501637 0 0 0
775 1 3100.0 0.00011394691928621505 0.019826879203349183 0.003459995179570183 0.015814905504277686 0 0 0
776 1 3100.0 1.4099480120758536e-05 0.019777401340194786 0.005870009615974769 0.0033879201093734057 0 0 0
777 1 3100.0 8.381380083779192e-05 0.009755629683366523 0.016815159348132113 0.012919732424567043 0 0 0
778 1 3100.0 0.00010826798232253764 0.0024596040426703458 0.005001071897050613 0.013202098631205054 0 0 0
779 1 3100.0 0.00017270065321940218 0.0003686277096717049 0.005534848976438577 0.006720341948921022 0 0 0
780 1 3100.0 7.577533302697035e-05 0.008716443003011595 0.003041552781757015 0.011663826574123331 0 0 0
781 1 3100.0 1.9704503330392956e-05 0.01864646779027885 0.01644985516456691 0.010249125553430397 0 0 0
782 1 3100.0 0.00010918646270225017 0.01780058680579939 0.010661230130543113 0.006051971413784134 0 0 0
783 1 3100.0 7.43531688021515e-05 0.015397232389301465 0.004666535657971828 0.0019128850516667547 0 0 0
784 1 3100.0 1.2452782074640919e-05 0.012298374455592283 0.015695529719654384 0.006956897582426771 0 0 0
785 1 3100.0 5.2487248549404156e-05 0.006478503589949146 0.00878309072213931 0.014885598779642241 0 0 0
786 1 3100.0 0.0002470911511458276 0.01478754211259719 0.010647154379404956 0.01920323332290536 0 0 0
787 1 3100.0 6.17160517738993e-06 0.010422505949601311 0.019666372364294884 0.005802596676890799 0 0 0
788 1 3100.0 6.80852048491909e-05 0.0036288034174050093 0.006373400592884031 0.013487547663321976 0 0 0
789 1 3100.0 4e-05 0.008188649249623753 0.018151077716188707 0.00015869572406610095 0 0 0
790 1 3100.0 2.5048959756797174e-05 0.011628803634260887 0.017038353754174805 0.009008742141551304 0 0 0
791 1 3100.0 6.107891215056743e-05 0.004175663438342026 0.012916411241176063 0.018864416440591038 0 0 0
792 1 3100.0 0.00010025702191715846 0.019200081353988683 0.009255450356921144 0.005008389423816002 0 0 0
793 1 3100.0 0.00013736023726609398 0.012623939735809811 0.013527408187318702 0.01014011922371049 0 0 0
794 1 3100.0 5.3885448543399454e-05 0.011599155160494383 0.012744860103253743 0.01150957813658451 0 0 0
795 1 3100.0 1.1842460984089608e-05 0.0012362324865721297 0.0071489279461966395 0.015679536156091908 0 0 0
796 1 3100.0 5.463344448399592e-05 0.012011581717762579 0.010984477936539169 0.006076144947330984 0 0 0
797 1 3100.0 5.3570005794393025e-05 0.015626061007467693 0.006445360549796024 0.005053689904764454 0 0 0
798 1 3100.0 4.762986138172355e-06 0.013855739788095369 0.013619290827492987 0.01634510044786831 0 0 0
799 1 3100.0 5.741527577456948e-05 0.014523173095781775 0.003875064368030351 0.01070210355483039 0 0 0
800 1 3100.0 2.7130262757560982e-05 0.01884100498895045 0.009932657412311066 0.01867177164989128 0 0 0
801 1 3100.0 7.246766979787524e-05 0.0007025194507259483 0.012690215433733614 0.005767117034053428 0 0 0
802 1 3100.0 1.9483903685743566e-05 0.00027265536285096435 0.0085213652399873 0.007007983566320973 0 0 0
803 1 3100.0 4.8903646787949766e-05 0.007973378866110782 0.005167558567022354 0.0019476963160235357 0 0 0
804 1 3100.0 0.00011454809500125247 0.018826292417961077 0.014738741672076141 0.010339730160977634 0 0 0
805 1 3100.0 5.487785258722426e-05 0.006172001195205436 0.008997162866038324 0.00023615441081370974 0 0 0
806 1 3100.0 7.98175734521289e-05 0.00976981389764073 0.016806357510643258 0.007867399026637576 0 0 0
807 1 3100.0 8.291188774879569e-05 0.0030902096440036356 0.013973663337897065 0.014204244812562846 0 0 0
808 1 3100.0 0.000120608540658069 0.007319276522647477 0.019570066990372167 0.015944004691669074 0 0 0
809 1 3100.0 0.0001363842236926155 0.017148466327469414 0.0015065300154798948 0.009904173729681422 0 0 0
810 1 3100.0 2.758678016977794e-06 0.006302197385161873 0.013780238660721129 0.01884087402825062 0 0 0
811 1 3100.0 2.5243014735160004e-05 0.008902520235704812 0.011574920131500977 0.0016952616137378544 0 0 0
812 1 3100.0 0.00017529970954458448 0.018818936028666744 0.019822184338746274 0.014304903573346692 0 0 0
813 1 3100.0 8.642382102329836e-06 0.01752826944149455 0.018398173875630197 0.0011635342660814459 0 0 0
814 1 3100.0 4e-05 0.015096151889501716 0.008991505124197424 0.006224213050213962 0 0 0
815 1 3100.0 0.0001066911003997945 0.00022942193644605825 0.00043944665783531185 0.01409505068997684 0 0 0
816 1 3100.0 6.405881465941015e-05 0.0004163656852300481 0.015432508082394783 0.010758875929326485 0 0 0
817 1 3100.0 4e-05 0.013268160088550357 0.019343024822334205 0.004652722447235282 0 0 0
818 1 3100.0 3e-05 0.0009470203407695274 0.016543071540700297 0.0011781911639514647 0 0 0
819 1 3100.0 0.00016883649067938998 0.010903167280938543 0.01690596248457246 0.0026829199486868103 0 0 0
820 1 3100.0 0.00024303487259422357 0.007473172423109821 0.008244336108320737 0.01112914112203913 0 0 0
821 1 3100.0 4.6804771592517196e-05 0.010680303498536247 0.0029500408816922666 0.016199421774305393 0 0 0
822 1 3100.0 0.00018483169451417427 0.007497087240170568 0.01779018524545187 0.013964084596089414 0 0 0
823 1 3100.0 5.37789505353926e-05 0.01453341912919309 0.005236851040894603 0.003070196214668875 0 0 0
824 1 3100.0 8.425810649593897e-05 0.00633340680416418 0.007848108569148273 0.01418453013989525 0 0 0
825 1 3100.0 7.407356533070466e-05 0.0027212679342134513 0.00849590986339933 0.010773001363476609 0 0 0
826 1 3100.0 0.00014199564082695109 0.011626539120708402 0.01759220007640593 0.0028613365852520277 0 0 0
827 1 3100.0 0.00016827915881161123 0.00704969168079759 0.016284580939960398 0.01861898755815291 0 0 0
828 1 3100.0 4e-05 0.012151238145145248 0.0164204755763345 0.01708345730207289 0 0 0
829 1 3100.0 0.00014386301189740118 0.001536244296872914 0.0008275695562671527 0.014249500507712272 0 0 0
830 1 3100.0 9.511220421039201e-05 0.0008469280514150678 0.005105194150018372 0.00753700172223635 0 0 0
831 1 3100.0 4.091391380094868e-05 0.00920662141783117 0.018229353549855245 0.004941531367454845 0 0 0
832 1 3100.0 6.500868361841472e-05 0.003171910556022843 8.762617847148289e-05 0.010557875783107507 0 0 0
833 1 3100.0 0.0001779902057758669 0.014499461798737847 0.01680653820962673 0.006283693803290577 0 0 0
834 1 3100.0 8.306982860091613e-05 0.014235623038676933 0.008536362677206248 0.011313216192422995 0 0 0
835 1 3100.0 2.125006908440291e-05 0.0027348017112501072 0.009197407469415874 0.01988479996405148 0 0 0
836 1 3100.0 4.3762507081311774e-05 0.005293369836944155 0.006182016194098643 0.006901320646497955 0 0 0
837 1 3100.0 6.921876813897738e-05 0.0006998559144018755 0.0017201605547427538 0.009420081344341144 0 0 0
838 1 3100.0 8.507248569416523e-05 0.01685709501667507 0.010813800044858407 0.0009167153835102034 0 0 0
839 1 3100.0 4e-05 0.0018476763102357636 0.015422673124802161 0.005281034922548882 0 0 0
840 1 3100.0 0.00010227087574656367 0.017423510721433968 0.0009258617753414984 0.015733222092901886 0 0 0
841 1 3100.0 1.742930582658809e-05 0.003592109510706541 0.0065751369360620955 0.01672490661490697 0 0 0
842 1 3100.0 0.00012542846353135107 0.006623570182152728 0.0010311705047495075 0.019302872798218587 0 0 0
843 1 3100.0 5.205403530580263e-06 0.006262833902102096 0.005992346836896123 0.011855854641156549 0 0 0
844 1 3100.0 0.00011284890787797827 0.0075801916899627475 0.004042228290743701 0.015829389131189198 0 0 0
845 1 3100.0 7.649092695519689e-06 0.009404662858880437 0.008591822796422902 0.014221032041304963 0 0 0
846 1 3100.0 0.00014007945515901813 0.018694099091924297 0.019118958159290406 0.003189962616240827 0 0 0
847 1 3100.0 5.7735898643106355e-06 0.007556009878706223 0.014317992866900713 0.004487696808294015 0 0 0
848 1 3100.0 1.122078232910381e-05 0.016672593175816798 0.013669048803989949 0.011948510165636585 0 0 0
849 1 3100.0 0.00014377795521034516 0.011908729625401987 0.017394869519139405 0.00540280889921085 0 0 0
850 1 3100.0 5.698438756982353e-05 0.006685636722442663 0.01695898427564462 0.019700364066979916 0 0 0
851 1 3100.0 8.90679227575011e-05 0.007220850240813007 0.0017684358368909533 0.0017686007901485388 0 0 0
852 1 3100.0 7.096881687746426e-06 0.007557359751048148 0.012332217021827668 0.019128813260994068 0 0 0
853 1 3100.0 6.304577306335084e-06 0.00722645266379311 0.017290919659792292 0.0027484724692209738 0 0 0
854 1 3100.0 5.336023398840095e-05 0.008580051302787719 0.001416243766631985 0.00011369297359803217 0 0 0
855 1 3100.0 0.00016460206120572147 0.002883302195317376 0.005907573678419997 0.009925274943348009 0 0 0
856 1 3100.0 4.0820618246048464e-05 0.002642595737601974 0.012648277055034199 0.01676052350026784 0 0 0
857 1 3100.0 8.204352818212308e-05 0.002044643368441811 0.0181324165708337 0.0027263439935424393 0 0 0
858 1 3100.0 9.159389225095085e-06 0.015658023827605144 0.0060124734300627146 0.014341589993948071 0 0 0
859 1 3100.0 1.2570704594877882e-05 0.013339621848253089 0.007843684273684398 0.01166131613104218 0 0 0
860 1 3100.0 0.00010607611843399624 0.006517104951290913 0.010175499167712593 0.0013425646596037 0 0 0
861 1 3100.0 9.3607077879446e-05 0.018877278416512253 0.010997568769075853 0.014293512939381279 0 0 0
862 1 3100.0 9.599453770288881e-05 0.012664387554597204 0.0023059496376910365 0.012538589253010485 0 0 0
863 1 3100.0 0.00018141848852745065 0.012365795374249365 0.0037183251558546454 0.006544761331057346 0 0 0
864 1 3100.0 0.00012864689972836294 0.003988033231356187 0.014196357792373417 0.007164024567854025 0 0 0
865 1 3100.0 0.00020697996258694403 0.019176651930012074 0.01023183918224156 0.01445726309328376 0 0 0
866 1 3100.0 6.639564225674719e-05 0.014158545005781654 0.005009825014498412 0.013772430665626445 0 0 0
867 1 3100.0 6.876850544471862e-05 0.01035866882877638 0.0028218335239745163 0.0030830034497954122 0 0 0
868 1 3100.0 1.596944012557426e-05 0.0065164690077966075 0.019234024963935305 0.01813738858172116 0 0 0
869 1 3100.0 0.00016816508088027536 0.007427384892273559 0.006634798821388524 0.0035451766108917366 0 0 0
870 1 3100.0 0.00016088071629740747 0.016765412663843925 0.0022528541102766675 0.005294258684977034 0 0 0
871 1 3100.0 9.832060257981742e-06 0.008809434037823303 0.014690083419027548 0.01338115034386093 0 0 0
872 1 3100.0 0.00013924762991652373 0.011601680899952246 0.0007512381224187572 0.018613888759897702 0 0 0
873 1 3100.0 0.00011992538871481305 0.0010235587494223657 0.009219342311392412 0.01622179307975214 0 0 0
874 1 3100.0 0.00016343599751255934 0.018743972966556367 0.018930389703329824 0.010086740625169536 0 0 0
875 1 3100.0 1.8168192127113077e-05 0.015303233101070061 0.007036757160941188 0.01164746623282369 0 0 0
876 1 3100.0 1.973197130638205e-05 0.0018922859414437308 0.018466760475207233 0.015055202565999107 0 0 0
877 1 3100.0 5.97785713521893e-05 0.006042175798385499 0.004613173976606866 0.0073296150431528045 0 0 0
878 1 3100.0 4.819052668642242e-06 0.00494408712164357 0.009682726871108197 0.016734342793971162 0 0 0
879 1 3100.0 8.259118546144532e-05 0.007434071847702236 0.012070467413602575 0.0064804178929215705 0 0 0
880 1 3100.0 0.00014525912108727724 0.016191212581315596 0.012049963620497112 0.011708788376924285 0 0 0
881 1 3100.0 2.6710583765185026e-05 0.012938559699187623 0.002492556548009604 0.009648757171727498 0 0 0
882 1 3100.0 0.00010019502335622136 0.014332946173445306 0.009281154934459994 0.018406238037515066 0 0 0
883 1 3100.0 0.00022235074115717303 0.0011267929476558901 0.017633350279240838 0.010290469420816352 0 0 0
884 1 3100.0 9.069398863923829e-06 0.001109872183207691 0.015251400388623814 0.006175283769489028 0 0 0
885 1 3100.0 8.332081935484853e-05 0.006200150612070962 0.017869639361053777 0.01624860373537537 0 0 0
886 1 3100.0 8.791067658748607e-06 0.013334790620491864 0.013171161811455454 0.014904828773743323 0 0 0
887 1 3100.0 8.051602879592373e-05 0.0193242396530326 0.007085142043971704 0.012457885404870939 0 0 0
888 1 3100.0 6.858689847220328e-05 0.019754539281659038 0.017808567120246064 0.018541533786649293 0 0 0
889 1 3100.0 8.40274372152395e-05 0.006724034878207748 0.019703078798786466 0.0022199248031775 0 0 0
890 1 3100.0 0.00016976975732713618 0.019277577700280997 0.012715202143806646 0.01226000095134065 0 0 0
891 1 3100.0 0.00015338182732880818 0.00401851361504278 0.00545586030101691 0.01397542495720668 0 0 0
892 1 3100.0 8.67486860151987e-05 0.006500545638411833 0.010018190268966894 0.004407924441783163 0 0 0
893 1 3100.0 1.3404129841270945e-05 0.0007198851333180922 0.013290867108511064 0.00166870943958772 0 0 0
894 1 3100.0 6.918090245155227e-05 0.00037954878136294045 0.016938705065713364 0.0033751702970310636 0 0 0
895 1 3100.0 4e-05 0.008074988136938561 0.002179465066488522 0.0179403701163539 0 0 0
896 1 3100.0 0.0001015485539599172 0.018115778861668694 0.0043261585515605985 0.009820875859852269 0 0 0
897 1 3100.0 9.578136715324168e-05 0.013103745335184618 0.016127404077520963 0.019777783258101117 0 0 0
898 1 3100.0 1.655260940737233e-05 0.019167405195011842 0.0030159467558232875 0.012498018633198396 0 0 0
899 1 3100.0 6.778485244785554e-05 0.01831595104593726 0.004518387414662122 0.003908676497930542 0 0 0
900 2 7870.0 0.0003 0.016112142382368865 0.007621302644985883 0.0035955846735313377 0 0 0
901 1 3100.0 0.00011998457146695645 0.007817002192330745 0.016672320349716566 0.0017314571301244046 0 0 0
902 1 3100.0 6.78486534053437e-05 0.0176411293089728 0.013738383216204453 0.006870111721063844 0 0 0
903 1 3100.0 3.0416366307939993e-06 0.015947468788674837 0.014819304747469326 0.009870198359164677 0 0 0
904 1 3100.0 0.00011548696609776912 0.017040281852823694 0.01870719190141799 0.002184873961827588 0 0 0
905 1 3100.0 1.0610016021643912e-05 0.015917473118811486 0.016218895422393676 0.01603141135575762 0 0 0
906 1 3100.0 4.4892818292962914e-05 0.013424276213915096 0.002303638094544751 0.00041675680796440253 0 0 0
907 1 3100.0 1.3059334400368534e-05 0.0163230089340677 0.015781591708581958 0.01920876113667222 0 0 0
908 1 3100.0 7.57335992522041e-05 0.013821212285572749 0.0022449191341200304 0.004568745157110094 0 0 0
909 1 3100.0 6.573674066635537e-06 0.013407101625516294 0.011842881834072097 0.0051104861695013435 0 0 0
910 1 3100.0 4.0860486577116826e-05 0.016272584305863168 0.019503765167357412 0.015594460215606074 0 0 0
911 1 3100.0 1.6726491088031096e-05 0.00035039934466661506 0.008708979338382257 0.01811231810625858 0 0 0
912 1 3100.0 0.00011787236847289363 0.015789718782741234 0.006697156941089755 0.00834829374027469 0 0 0
913 1 3100.0 0.0002452554507621696 0.013326145426149738 0.006274509443256838 0.016245753995781393 0 0 0
914 1 3100.0 8.807686552403028e-06 0.011600505591687998 0.015417849209178158 0.0074494342111048484 0 0 0
915 1 3100.0 0.0002789925970054628 0.014764027325871445 0.01847269096567446 0.01603992122607143 0 0 0
916 1 3100.0 7.431011073673235e-06 0.005954969848267676 0.01749018051680254 0.0004536237852521237 0 0 0
917 1 3100.0 5.1713832245312444e-05 0.0029922129916168136 0.014188252639397225 0.0018343883205187385 0 0 0
918 1 3100.0 1.9536023302477333e-05 0.015818361425222388 0.01243104953665053 0.012403727297867135 0 0 0
919 1 3100.0 2.4877302416827348e-05 0.002710726283497485 0.019427807080083095 0.00748662068663583 0 0 0
920 1 3100.0 2.040689179919636e-05 0.010468998301055339 0.010949692007477316 0.011144629119039878 0 0 0
921 1 3100.0 6.498718010807535e-05 0.000898233529131043 0.016546740199998487 0.016183822346396395 0 0 0
922 1 3100.0 0.00013210429000982594 0.015091245097118337 0.011845507227984069 0.0022138101773595603 0 0 0
923 1 3100.0 0.0001001799250170873 0.004049591262727871 0.018824461117427516 0.002557650027621733 0 0 0
924 1 3100.0 9.194580181912032e-06 0.009543494799128966 0.013308678641895097 0.0081404481817839 0 0 0
925 1 3100.0 1.6958536815721557e-05 0.013915267404102281 0.008182794815659067 0.0072186847938494995 0 0 0
926 1 3100.0 9.37987437687635e-06 0.010545057052557745 0.008466296164529475 0.01548772505535589 0 0 0
927 1 3100.0 3e-05 0.008547028205528186 0.011963304974372925 0.00176717602902133 0 0 0
928 1 3100.0 2.3024775631376643e-05 0.01866307217902138 0.0028346558086268197 0.012767046727498664 0 0 0
929 1 3100.0 6.801920279507111e-05 0.012727787347099319 0.013014923486440025 0.018646417492899317 0 0 0
930 1 3100.0 2.2938025430392153e-05 8.081652491615563e-05 0.01516909409105251 0.010297178304090462 0 0 0
931 1 3100.0 0.00010192689592961088 0.012921375830340028 0.013787964654521156 0.004868825692221616 0 0 0
932 1 3100.0 9.54260626821407e-05 0.012099338949046499 0.010373060810332143 0.018797211708200375 0 0 0
933 1 3100.0 0.00013448107739011517 0.004330067516913034 0.004545193911866199 0.01694409287350468 0 0 0
934 1 3100.0 0.00011431001699371056 0.002921283870262715 0.013278984176846802 0.011600876290463233 0 0 0
935 1 3100.0 0.0001828133563514631 0.00594209329811321 0.0043860862906363535 0.0046721818617536425 0 0 0
936 1 3100.0 3.040596790447464e-06 0.013199058024622788 0.015525324823909767 0.01448711826863404 0 0 0
937 1 3100.0 0.00010470719239496065 0.005151224426325313 0.016854967511461146 0.016837704343153282 0 0 0
938 1 3100.0 1.710101674005009e-05 0.005172168620541246 0.015055021692424049 0.01276273820401087 0 0 0
939 1 3100.0 1.938439221984414e-05 0.0033160711843889805 0.001727584739696884 0.011429265644446837 0 0 0
940 1 3100.0 8.197798518994966e-05 0.012959458948045463 0.013941198186143838 0.0009319089895356101 0 0 0
941 1 3100.0 0.0002465580089412108 0.006182578012226724 0.008588095523031063 0.013672307936432825 0 0 0
942 1 3100.0 0.00010715854154025515 0.001481039267484261 0.007935150112355715 0.004753277529483969 0 0 0
943 1 3100.0 0.00025842493493686045 0.007237573598731627 0.009555235513523214 0.012672868450157394 0 0 0
944 1 3100.0 1.6175494042692817e-05 0.018256291417522684 0.01871780263593884 0.015375731090685917 0 0 0
945 1 3100.0 5.110476763603506e-05 0.0076069509326835375 0.003088311347577995 0.00837062624171153 0 0 0
946 1 3100.0 2.301930048530643e-05 0.003933104886324942 0.0024948998912881428 0.0037684103196187037 0 0 0
947 1 3100.0 4e-05 0.018347529633672276 0.013473276177630961 0.010201640936508116 0 0 0
948 1 3100.0 5.917875595607702e-05 0.01439371873388628 0.008170143092690778 0.016592993685323035 0 0 0
949 1 3100.0 8.244373916933335e-05 0.008252018417595377 0.010607803510083762 0.00659860076415656 0 0 0
950 1 3100.0 6.636177358025679e-05 0.017421096736027097 0.0181115041382131 0.010117715344704353 0 0 0
951 1 3100.0 7.231559854452527e-06 0.0046039550370633895 0.017800375325254268 0.003943439977779411 0 0 0
952 1 3100.0 6.131705747144363e-06 0.00607781568758538 0.017979770910025554 0.0019366369055195732 0 0 0
953 1 3100.0 0.0001698568863130992 0.018432633831401837 0.014745764071871826 0.006352849338526305 0 0 0
954 1 3100.0 0.00010832174208092901 0.00852002305860709 0.018120599668057968 0.002918435890822586 0 0 0
955 1 3100.0 5.880165190439469e-05 0.005259454610528526 0.019149600981741673 0.003634153113314849 0 0 0
956 1 3100.0 4.445636790305181e-05 0.009823599860374265 0.003176246132101766 0.008583719332973423 0 0 0
957 1 3100.0 0.00012198011402559406 0.008558676399302792 0.009791590775016103 0.007687620905076161 0 0 0
958 1 3100.0 1.0273933400758045e-05 0.0028562959981166453 0.00586942801943366 0.017116931787531063 0 0 0
959 1 3100.0 0.00021375027025202585 0.01877479811129872 0.0163663282365831 0.018993254960101572 0 0 0
960 1 3100.0 0.00011141852364202123 0.005641958077639035 0.012460588426196122 0.017775236310920907 0 0 0
961 1 3100.0 7.865417514989724e-05 0.0033431574386393894 0.009153746366876077 0.0006973848914704368 0 0 0
962 1 3100.0 1.5886365860813223e-05 0.011590492764035334 0.004909931058708049 0.010156199138952155 0 0 0
963 1 3100.0 0.00010675961856540837 0.0049092582703599875 0.018245465262769527 0.006181601796538327 0 0 0
964 1 3100.0 8.550087333619373e-05 0.00929051403245915 0.0022399006564998085 0.017935281292160172 0 0 0
965 1 3100.0 8.642163101868347e-06 0.00032704053217256487 0.008943063234807218 0.001226220388117165 0 0 0
966 1 3100.0 2.223733068835216e-05 0.010851712656878463 0.005856495093662719 0.016556066084241886 0 0 0
967 1 3100.0 8.422813111842748e-06 0.011604451829939702 0.0030191796110920527 0.00262447141243641 0 0 0
968 1 3100.0 1.4159720358274275e-05 0.00893373248757585 0.00548920485091311 0.003266420285926736 0 0 0
969 1 3100.0 1.6469958202806357e-05 0.003892762735583093 0.01624185943192527 0.011175956804728432 0 0 0
970 1 3100.0 1.6134913179609737e-05 0.010641109744698368 0.002916440897253793 0.013341961498861557 0 0 0
971 1 3100.0 0.00016775670216689624 0.0028500494564684168 0.007907755359279822 0.005644653280365669 0 0 0
972 1 3100.0 6.994794995672572e-05 0.0018279406411876615 0.01572889224556988 0.01633725038813929 0 0 0
973 1 3100.0 7.433635883537554e-05 0.00898740646441406 0.0008566584550731655 0.004947202194520431 0 0 0
974 1 3100.0 0.00016568028761435757 0.01889597718406386 0.01715602171344424 0.010331549252778714 0 0 0
975 1 3100.0 9.100885697520955e-06 0.0035081701739978852 0.01709633320626238 0.019583774934640846 0 0 0
976 1 3100.0 5.3250579311826015e-05 0.013720656337916002 0.01868937583735855 0.011704418983701436 0 0 0
977 1 3100.0 2.309220087834947e-05 0.0017776293682361572 0.005758230196693453 0.001407100823453463 0 0 0
978 1 3100.0 0.00016307688530040745 0.012588391491577897 0.000518955946942712 0.0028841310399084427 0 0 0
979 1 3100.0 6.172095239147318e-05 0.013873346338291875 0.00557654970284284 0.0160961673801189 0 0 0
980 1 3100.0 7.913160198732476e-05 0.01954353219407876 0.005795160644769973 0.0037927578973429876 0 0 0
981 1 3100.0 6.1008201163387024e-05 0.019520010252386782 0.016396120716827264 0.004243193859000859 0 0 0
982 1 3100.0 8.451148565187049e-05 0.014514693204410747 0.002494356560025173 0.00421659140508037 0 0 0
983 1 3100.0 6.388830282915262e-05 0.0025778192092572923 0.006216717298927291 0.018505258338882096 0 0 0
984 1 3100.0 5.137583751323798e-05 0.0029752481435874785 0.012220635280508025 0.003707241235085119 0 0 0
985 1 3100.0 6.5864116257949915e-06 0.019047985600585345 0.016349473474971687 0.009852533830074266 0 0 0
986 1 3100.0 7.516783431957227e-05 0.0016091021352086956 0.011605327223297626 0.01796258219246288 0 0 0
987 1 3100.0 6.179843596897606e-05 0.009372566996890791 0.010185590251853357 0.011362696340944542 0 0 0
988 1 3100.0 4.829140206659798e-05 0.01719658956582141 0.01092662905392887 0.009209800372830486 0 0 0
989 1 3100.0 8.616240651905118e-05 0.011706725932576179 0.005539092459763272 0.016375060208792997 0 0 0
990 1 3100.0 5.153190020838161e-06 0.008008071987855784 0.01068502413019246 0.01263159041252265 0 0 0
991 1 3100.0 0.00010124757579973084 0.001487784892121486 0.019447101182662876 0.017418054263508335 0 0 0
992 1 3100.0 0.0001700697621102545 0.008056647595318172 0.013407837256902862 0.01597568045637978 0 0 0
993 1 3100.0 7.112667883251553e-06 0.006472640653849584 0.01330183620870185 0.0168207926386494 0 0 0
994 1 3100.0 0.00013321895357404118 0.019246972383056386 0.009172126770255125 0.012440370525869776 0 0 0
995 1 3100.0 7.83227843996363e-06 0.0018002121144845373 0.008891648911507554 0.007881940363848903 0 0 0
996 1 3100.0 1.2822279292779744e-05 0.010314401566985437 0.00034136569197957867 0.009270042183275953 0 0 0
997 1 3100.0 9.600029113560816e-05 0.009576837349092733 0.002891649852619811 0.01557648540373929 0 0 0
998 1 3100.0 0.00010051815538297858 0.0072618846453502955 0.0006823536563975525 0.011286633133081859 0 0 0
999 1 3100.0 0.00012089800225510656 0.004943270406620401 0.0005468086089272105 0.00995887777562949 0 0 0
1000 1 3100.0 4e-05 0.018618666534182364 0.0140485030245696 0.018359789564418992 0 0 0
1001 1 3100.0 0.0001350668679721148 0.006957675649472717 0.006252375985156216 0.005542935659509971 0 0 0
1002 1 3100.0 9.910946412924846e-05 0.0029945169181739917 0.005652118645199545 0.013494155673841591 0 0 0
1003 1 3100.0 4e-05 0.014612735335339602 0.0029672343071486963 0.010990159321987837 0 0 0
1004 1 3100.0 8.571144526306587e-05 0.009927090250325498 0.006635868619488451 0.005941801291542364 0 0 0
1005 1 3100.0 5.722749530328833e-05 0.007241116521289344 0.011299196465444767 0.0031512001678728556 0 0 0
1006 1 3100.0 1.2035783937332886e-05 0.0002506671674535047 0.008383950994024359 0.008514760261192673 0 0 0
1007 1 3100.0 4.763266530387662e-06 0.01974735356065533 0.00945336987513707 0.01510843499660359 0 0 0
1008 1 3100.0 3e-05 0.012871242329490615 0.0035899727499111573 0.01663609821317616 0 0 0
1009 1 3100.0 4.721031002064723e-05 0.0005793516345390202 0.008851347020227218 0.008688024696465284 0 0 0
1010 1 3100.0 0.00014587632355297524 0.011245823056865225 0.009295281224930622 0.005019467652010749 0 0 0
1011 1 3100.0 1.4367518522182648e-05 0.008805393554499575 0.0010837430912569847 0.016958530439605365 0 0 0
1012 1 3100.0 8.792598872372924e-05 0.01385546728074569 0.01670094811863732 0.01713051338154539 0 0 0
1013 1 3100.0 9.7871599181139e-06 0.01290244251926058 0.01274817225223463 0.002598571555822643 0 0 0
1014 1 3100.0 1.7699033355282692e-05 0.017070226476992998 0.015180851051351823 0.0007509565664640293 0 0 0
1015 1 3100.0 3e-05 0.004603465632527158 0.008253271649504198 0.01916782891879302 0 0 0
1016 1 3100.0 7.940214049287808e-06 0.005161136717315639 0.0019291252199862647 0.017072016216796222 0 0 0
1017 1 3100.0 7.56327402263699e-05 0.0049256596219566275 0.014458523844342467 0.019769351511078535 0 0 0
1018 1 3100.0 2.3715979156509358e-05 0.011893222464662184 0.012133841343943786 0.00430599015807773 0 0 0
1019 1 3100.0 0.00017225962449968297 0.014507971702259672 0.017453625288607427 0.010805877672458697 0 0 0
1020 1 3100.0 1.9934084573017903e-05 0.009600120588953966 0.014630392063577127 0.005384699861879948 0 0 0
1021 1 3100.0 1.7276060248798716e-05 0.0034609596147968935 0.0024889661383644722 0.019307055184283176 0 0 0
1022 1 3100.0 7.050813721657265e-05 0.0008092153681449381 0.0011832257329385586 0.014112170760141155 0 0 0
1023 1 3100.0 8.502756348752834e-05 0.01778506206746453 0.0037511851552659166 0.009010951452419345 0 0 0
1024 1 3100.0 0.00015837733013624537 0.006190157084291311 0.003300042180476116 0.004458816038806687 0 0 0
1025 1 3100.0 1.6717185788657173e-05 0.0026258049002854393 0.008631761694866838 0.00788043541160297 0 0 0
1026 1 3100.0 4.923905965338896e-05 0.00932151386601897 0.015812636800565206 0.004481056624975676 0 0 0
1027 1 3100.0 4e-05 0.001610821909714056 0.002116635383545867 0.014179517527994042 0 0 0
1028 1 3100.0 0.00011634507559001423 0.005037316082418327 0.018990191745702798 0.0004641326817087884 0 0 0
1029 1 3100.0 4.9152619586572016e-05 0.013296933658419894 0.004961427880574697 0.0008127455111981795 0 0 0
1030 1 3100.0 7.802502394839143e-05 0.013094758001614885 0.006579775990527017 0.008859286671723633 0 0 0
1031 1 3100.0 1.49406477867209e-05 0.0036099182422051246 0.009810965817979274 0.017287539882139394 0 0 0
1032 1 3100.0 4e-05 0.00325608406743713 0.003991503869901437 0.006102705445824595 0 0 0
1033 1 3100.0 6.28229557867809e-06 0.003346877898668831 0.0009746875024226254 0.010150704138634664 0 0 0
1034 1 3100.0 0.00022544785961852543 0.018472401155597076 0.005549180030152457 0.01080348794227389 0 0 0
1035 1 3100.0 0.00012700450623655236 0.009420920814341968 0.007441549243984164 0.009279335707924247 0 0 0
1036 1 3100.0 0.00011150693759500053 0.016246841096658533 0.002722859862065114 0.0010728602869334277 0 0 0
1037 1 3100.0 8.853084429562525e-06 0.002625696878654409 0.007599320074969539 0.0023175251224615617 0 0 0
1038 1 3100.0 8.341654999031728e-06 0.0020164894121370938 0.012805635340916912 0.017118518947974812 0 0 0
1039 1 3100.0 2.576430508384537e-05 0.0035771677905414375 0.0022577718049996806 0.019972358744606997 0 0 0
1040 1 3100.0 8.297322840681596e-05 0.018420436502451478 0.008488230363405687 0.008955512845005401 0 0 0
1041 1 3100.0 4.833987619724028e-05 0.015148440700033561 0.005149111042498657 0.0026616533022137193 0 0 0
1042 1 3100.0 7.000291338151265e-06 0.009144421483501352 0.013898717938771307 0.01386259321250344 0 0 0
1043 1 3100.0 0.00011616817518454991 0.00047791972566218246 0.01811703071508183 0.011952705098273021 0 0 0
1044 1 3100.0 0.00012112346516376082 0.009289667104664523 0.012823564464923195 0.01034020516241613 0 0 0
1045 1 3100.0 0.000218311931194663 0.013227935368574209 0.014668686261795062 0.008922911690272178 0 0 0
1046 1 3100.0 1.9106212188261597e-05 0.018427710996757052 0.016096772683672596 0.008323549680151945 0 0 0
1047 1 3100.0 4.834448689495345e-05 0.009215382661193471 0.00665538707529562 0.001171105907854551 0 0 0
1048 1 3100.0 6.862460391272962e-05 0.012189377263743549 0.0005072105252621451 0.0028724286206888903 0 0 0
1049 1 3100.0 0.00015900306196424646 0.0037272653956119976 0.016052875022842136 0.015097972297435012 0 0 0
1050 1 3100.0 1.5952162761727635e-05 0.012862108351570084 0.015765223312347528 0.003182704724737121 0 0 0
1051 1 3100.0 5.558505680964813e-05 0.015291816292506621 0.011410908504653948 0.007853083921444324 0 0 0
1052 1 3100.0 2.9875685422733336e-05 0.01595172178467416 0.006606875379673956 0.016356831810603652 0 0 0
1053 1 3100.0 0.00017861211707004675 0.01048419299567345 0.014990568549277264 0.017458244640876107 0 0 0
1054 1 3100.0 4e-05 0.011415837663715032 0.018174317373825175 0.013568315155642996 0 0 0
1055 1 3100.0 5.0626723346251325e-05 0.0053029692144053436 0.01459687276081188 0.002173000561634869 0 0 0
1056 1 3100.0 6.64624203176693e-05 0.005984513039854269 0.008548016383379436 0.016580114552199834 0 0 0
1057 1 3100.0 4e-05 0.0006761425014991357 0.00910798806130424 0.01080958637171097 0 0 0
1058 1 3100.0 0.00015723466470880183 0.0045960357461698655 0.0005082563126791579 0.018365947598473892 0 0 0
1059 1 3100.0 0.00017156107717202808 0.007637304191941012 0.00369667958372766 0.010225911678890653 0 0 0
1060 1 3100.0 7.261317362550989e-05 0.01885545769890251 0.003970155180349295 0.005333210105081579 0 0 0
1061 1 3100.0 1.3026640905214467e-05 0.017228050212916644 0.0018300476639228716 0.0081152127790143 0 0 0
1062 1 3100.0 4.7027283193585426e-05 0.002420123259416163 0.00611891596188899 0.015469536651617162 0 0 0
1063 1 3100.0 5.174722660034599e-05 0.0035991305881422964 0.010558230622181738 0.019613734799760817 0 0 0
1064 1 3100.0 5.815109409732819e-06 0.009547262573013722 0.0066274549452631035 0.01318759401547735 0 0 0
1065 1 3100.0 3e-05 0.0011477779363425452 0.014213665215604233 0.015375023135777882 0 0 0
1066 1 3100.0 0.00010819237898869448 0.0023553388675395066 0.0006855197964679646 0.0046630423403740745 0 0 0
1067 1 3100.0 4.379823262370553e-06 0.015540303818628724 0.012178490859017694 0.01297143488652561 0 0 0
1068 1 3100.0 2.4006135153653114e-05 0.014638689098628194 0.00024814338770436545 0.011098655983623466 0 0 0
1069 1 3100.0 6.062285016902545e-05 0.010710628101406456 0.004035099565278238 0.008574645808451175 0 0 0
1070 1 3100.0 8.346091924783018e-06 0.015325159461883413 0.010396011060933455 0.004129687367211348 0 0 0
1071 1 3100.0 7.905676455119594e-06 0.010580750840312092 0.005855069574397996 0.0002192337687883033 0 0 0
1072 1 3100.0 0.00010342173535821904 0.016783871428747 0.009321235669264972 0.006504440979252671 0 0 0
1073 1 3100.0 7.503270090807866e-06 0.011372368288899063 0.0034347345704777506 0.008282131751586621 0 0 0
1074 1 3100.0 9.83039634717823e-06 0.005061411001639633 0.005345047097222583 0.0027351828092983476 0 0 0
1075 1 3100.0 2.2281370082237634e-05 0.00027171302434322674 0.019365669559450436 0.0003719517346501701 0 0 0
1076 1 3100.0 7.434219651677098e-05 0.015071410321430534 0.01869822889960872 0.0014089441385811312 0 0 0
1077 1 3100.0 0.00022264450564884872 0.0064233615533967935 0.0014343543015697738 0.019484934587240422 0 0 0
1078 1 3100.0 6.75013634966357e-05 0.012125794995572566 0.01438306202651166 0.01405070926803788 0 0 0
1079 1 3100.0 0.00014468639011122662 0.018908484161747226 0.01395093321459688 0.01168923490235458 0 0 0
1080 1 3100.0 9.433707518239316e-05 0.016571358644111203 0.011168551746958159 0.010463120873823128 0 0 0
1081 1 3100.0 1.130014319789367e-05 0.007236493312812614 0.008992705140013539 0.002831027489645321 0 0 0
1082 1 3100.0 1.158312000691633e-05 0.009583962833844504 0.0177743849442146 0.001903372104972513 0 0 0
1083 1 3100.0 1.3338068286541125e-05 0.004036462118272814 0.018807790395206993 0.007999950388192494 0 0 0
1084 1 3100.0 5.3727349809055226e-05 0.009485880490061206 0.018308094768354457 0.014304661080681904 0 0 0
1085 1 3100.0 0.00014088523066794467 0.0036536341858562946 0.013151394278680038 0.008188037184353611 0 0 0
1086 1 3100.0 3e-05 0.003451581436565045 0.01063427491331046 0.002653297867447327 0 0 0
1087 1 3100.0 0.00010522279030148651 0.018778343991616406 0.0036084736758867962 0.006742098379039363 0 0 0
1088 1 3100.0 4e-05 0.008000778318054394 0.019624048386775526 0.010615796175603013 0 0 0
1089 1 3100.0 3.6733656487746194e-06 0.017926828181765497 0.008370236889760291 0.0072695679538623305 0 0 0
1090 1 3100.0 4.9846196330997375e-05 0.012942070811185093 0.013105045304932091 0.0058117434764107445 0 0 0
1091 1 3100.0 4e-05 0.008693937032233014 0.009557385752896764 0.00951061994228277 0 0 0
1092 1 3100.0 1.863505078301122e-05 0.01749160204365998 0.012616088769248269 0.0144248118733564 0 0 0
1093 1 3100.0 6.339947750998104e-05 0.01759991946376544 0.014589293951514894 0.0075365258200852615 0 0 0
1094 1 3100.0 8.074224611156835e-05 0.010083337014777472 0.016544536752649573 0.0012751228654613374 0 0 0
1095 1 3100.0 0.00016133537785358097 0.001506504234162847 0.006936081664746167 0.0008331056223324645 0 0 0
1096 1 3100.0 0.00010600740476305335 0.011960188568466116 0.014530853649759472 0.011383443831104182 0 0 0
1097 1 3100.0 7.151952450496512e-06 0.009322585119768495 0.010516874239573462 0.011680014562919238 0 0 0
1098 1 3100.0 2.2755167026958302e-05 0.018829284793932276 0.014602864074967012 0.004999002888564402 0 0 0
1099 1 3100.0 1.306324374582567e-05 0.005439489960144133 0.019986111662232856 0.017920004192835955 0 0 0
1100 1 3100.0 4e-05 0.0034751182316993335 0.0051021980821879314 0.012887718879771881 0 0 0
1101 1 3100.0 6.232631575710732e-05 0.005737293302461214 0.019809446553893724 0.0007225576416381496 0 0 0
1102 1 3100.0 7.252009588516743e-05 0.008835736847628858 0.017798927371534816 0.015066498735601747 0 0 0
1103 1 3100.0 7.806432551068841e-05 0.014577150111190424 0.003687534187754634 0.019185264255679114 0 0 0
1104 1 3100.0 1.1258238844372695e-05 0.0064306067670210215 0.005925058988330656 0.01818099533485466 0 0 0
1105 1 3100.0 8.922564506156276e-05 0.003965968347038442 0.01732025320211205 0.002162156157286487 0 0 0
1106 1 3100.0 8.611414759441597e-05 0.0012789837471901136 0.006734487691793818 0.018940413684501257 0 0 0
1107 1 3100.0 9.870721681326163e-05 0.01232412340592707 0.014775907236329204 0.019700004254230147 0 0 0
1108 1 3100.0 0.00018911882142690436 0.019587206781096298 0.0019483285651304984 0.00943076414808112 0 0 0
1109 1 3100.0 4.040641698091156e-06 0.008940519702347174 0.0013811188919275307 0.004753915044644991 0 0 0
1110 1 3100.0 6.995695977350689e-05 0.017758723092781953 0.007245594206958767 0.007947463249102458 0 0 0
1111 1 3100.0 5.121463687190858e-06 0.009255303453117847 0.015294538369921342 0.008537735394036648 0 0 0
1112 1 3100.0 1.2652923575091234e-05 0.018591209954430053 0.018119637759196085 0.01106570614238116 0 0 0
1113 1 3100.0 0.00010124268507395357 0.008147003888343309 0.012687953204223256 0.010724079351103076 0 0 0
1114 1 3100.0 5.787754031941112e-05 0.012705228299439186 0.011224135422445165 0.014085971016671476 0 0 0
1115 1 3100.0 6.093867707085583e-05 0.002629189897080874 0.010442545905281948 0.0013717178856344164 0 0 0
1116 1 3100.0 0.0001112530956389465 0.010768865733106816 0.0027904396238833304 0.01406084302937171 0 0 0
1117 1 3100.0 8.077846703183556e-05 0.008506655691535255 0.015706098346091997 0.001133654697859983 0 0 0
1118 1 3100.0 0.00013797744244199 0.01570895819413864 0.006298384973304623 0.011763194059222583 0 0 0
1119 1 3100.0 1.55639167721362e-05 0.004720282710633854 0.0004390178950510475 0.00011171865244463122 0 0 0
1120 1 3100.0 0.00013361465269442016 0.01695077415949736 0.00293968384567988 0.005222820227420913 0 0 0
1121 1 3100.0 9.685785782921784e-05 0.005253863669497026 0.00505983749400458 0.01589441652263343 0 0 0
1122 1 3100.0 4.550981632903168e-05 0.010953191586557061 0.01305900720916016 0.015573221068351902 0 0 0
1123 1 3100.0 0.00010164972572811777 0.001673559148370896 0.015863807852845014 0.018355292187689408 0 0 0
1124 1 3100.0 0.0001591353095224612 0.012106044111541888 0.007181383468339175 0.0193347363756142 0 0 0
1125 1 3100.0 7.148229631815337e-06 0.014386930347895911 0.01633749154285465 0.012625116468758196 0 0 0
1126 1 3100.0 0.00010153300445211454 0.005526109305049427 0.012814575932529028 0.007851742807671225 0 0 0
1127 1 3100.0 0.00011161346079049427 0.0022313662532349138 0.01314995262953732 0.018882171908512196 0 0 0
1128 1 3100.0 0.0001331124416380806 0.007054704609239422 0.003206020457219024 0.013156170821554774 0 0 0
1129 1 3100.0 2.674889407837118e-05 0.008349850635428632 0.010866828511769809 0.0018581943637116388 0 0 0
1130 1 3100.0 7.063399284264912e-05 0.010314782382502883 0.0141229275261477 0.019029382275481076 0 0 0
1131 1 3100.0 6.90459400303662e-05 0.0033648057188686857 0.014037883504204198 0.016821213716052393 0 0 0
1132 1 3100.0 9.112770761929366e-05 0.00221561389339608 0.0035151986159840144 0.010345535420596403 0 0 0
1133 1 3100.0 5.89625634475209e-05 0.005048642797802389 0.0030088147612453773 0.005609992688789978 0 0 0
1134 1 3100.0 9.774380337684542e-06 0.009915078142844392 0.019185905256765837 0.019843279528016934 0 0 0
1135 1 3100.0 2.5991614071593256e-05 0.008262273972763877 0.012953593337091597 0.0037503703280411895 0 0 0
1136 1 3100.0 0.00010879174996089679 0.008391285478885758 0.0026208940419936793 0.01674036392320766 0 0 0
1137 1 3100.0 3e-05 0.009722678831552483 0.008337828062486575 0.019134909144774004 0 0 0
1138 1 3100.0 0.00011287623961214974 0.019034041967641725 0.011779488953244217 0.007778086910333041 0 0 0
1139 1 3100.0 1.0651232368829084e-05 0.019794085704357867 0.017576737380529082 0.012912166735589706 0 0 0
1140 1 3100.0 4.584047318563244e-05 0.017746556905396865 0.017132705506067977 0.017590309156191405 0 0 0
1141 1 3100.0 3e-05 0.002943500836058733 0.011355429984622432 0.017462925536331282 0 0 0
1142 1 3100.0 9.724489776666935e-05 0.009294133451327584 0.007618429872443307 0.015752241349465408 0 0 0
1143 1 3100.0 4.991404430204445e-05 0.018651815693864014 0.013444600777346135 0.0030690559457988487 0 0 0
1144 1 3100.0 7.92881495937188e-05 0.016618553342961574 0.007264050778936616 0.01879529806152123 0 0 0
1145 1 3100.0 2.846209031808743e-05 0.003393276243135629 0.0015704389679847453 0.012452683096201568 0 0 0
1146 1 3100.0 6.663324689880854e-05 0.013044069034009734 0.007587819500184691 0.008108868135345847 0 0 0
1147 1 3100.0 7.216790853565092e-05 0.004406712780162813 0.007554197660399918 0.01498160028305757 0 0 0
1148 1 3100.0 2.0544180991572846e-05 0.012761532011800875 0.0053409048200359095 0.003077090342601249 0 0 0
1149 1 3100.0 0.00010158588813526218 0.002535558289024054 0.0010813600560028427 0.004705971711665523 0 0 0
1150 1 3100.0 0.0001702419864094232 0.016711131594107663 0.008038808474185446 0.0024724969154511006 0 0 0
1151 1 3100.0 0.0001311757406611593 0.01046383277698137 0.014229220489103165 0.004280755401581619 0 0 0
1152 1 3100.0 1.1257573428510316e-05 0.011404062376283962 0.013253429258105315 0.007445940190693037 0 0 0
1153 1 3100.0 0.00011407873349636484 0.011364075736952028 0.012190658345391566 0.01684367616518388 0 0 0
1154 1 3100.0 6.710836920110352e-05 0.010189526142233273 0.018414102532335767 0.01845472725382273 0 0 0
1155 1 3100.0 1.0243377953300455e-05 0.016635796991129916 0.012741291695197358 0.0175983238466784 0 0 0
1156 1 3100.0 6.042679487254699e-06 0.019640173675817357 0.0006739777535421607 0.007187661789549244 0 0 0
1157 1 3100.0 9.257167925177443e-05 0.017578176448870664 0.0084227847375925 0.002091679214591601 0 0 0
1158 1 3100.0 1.0535682609153821e-05 0.010107030635909679 0.012612187058877565 0.008421522468060992 0 0 0
1159 1 3100.0 5.796917851139247e-05 0.010994308873190278 0.013595740293078671 0.00230044843374824 0 0 0
1160 1 3100.0 1.5770663530901993e-05 0.018586195839005396 0.0031734357300216903 0.016865452240925668 0 0 0
1161 1 3100.0 0.00011582687823185009 0.007837939181089527 0.006513218517318976 0.0195016596963666 0 0 0
1162 1 3100.0 8.787208882390278e-05 0.018467598543818457 0.003633685625781563 0.003526828980945835 0 0 0
1163 1 3100.0 0.00010888563902136098 0.009855514348450979 0.012975924273499796 0.013812077006802351 0 0 0
1164 1 3100.0 6.499318183650708e-05 0.004983819574674709 0.011830746862034967 0.0014594861397018513 0 0 0
1165 1 3100.0 7.713615099213233e-05 0.016354750408162907 0.00045469591364490905 0.00791096790160362 0 0 0
1166 1 3100.0 1.119979624333278e-05 0.018500583302286232 0.005521860797069243 0.007362020249345911 0 0 0
1167 1 3100.0 0.00012556262097428923 0.018198450814140295 0.003103777665042387 0.004362780325405953 0 0 0
1168 1 3100.0 9.87737668742712e-06 0.012158105885401184 0.003207963991068117 0.0041370134975639555 0 0 0
1169 1 3100.0 5.4206774877989846e-05 0.01899280609696738 0.014592119275367058 0.009311310590769131 0 0 0
1170 1 3100.0 7.812416334672645e-06 0.01914680782552268 0.0027163848251217804 0.01795163586330296 0 0 0
1171 1 3100.0 8.012732984175708e-05 0.00042700007995415205 0.008376893095820525 0.017625070352495453 0 0 0
1172 1 3100.0 0.0001169062423866808 0.0012559386460032696 0.015107133018310312 0.0067666764926498455 0 0 0
1173 1 3100.0 0.0001263925847537697 0.010391533778322866 0.019753605575438177 0.00018714292559194955 0 0 0
1174 1 3100.0 9.285567956407606e-05 0.009544544473880106 0.008444614173314189 0.005614551036910289 0 0 0
1175 1 3100.0 0.00011194513848488853 0.0007021772163237152 0.009507780029951883 0.015140979232276012 0 0 0
1176 1 3100.0 9.386424129349666e-06 0.0045708997019669505 0.01975975550415666 0.01741131133484315 0 0 0
1177 1 3100.0 0.00011494064402363773 0.004159426909476388 0.011576704731821371 0.01505027890717469 0 0 0
1178 1 3100.0 1.727884005728167e-05 0.011983841287658621 0.008353200493864761 0.008020191916696175 0 0 0
1179 1 3100.0 0.00011502542381735735 0.012753922698267965 0.00678257591682027 0.004301820933123486 0 0 0
1180 1 3100.0 3e-05 0.005652440161683631 0.0014788867740493086 0.0023934798212385173 0 0 0
1181 1 3100.0 7.665457538674518e-06 0.01361266919956381 0.010321249035149416 0.008464385960561923 0 0 0
1182 1 3100.0 5.068475853948616e-06 0.019048068581428185 0.008165887140300414 0.018916000099145486 0 0 0
1183 1 3100.0 0.00012191352626889281 0.01559902121341391 0.010727861138157857 0.008752165646636716 0 0 0
1184 1 3100.0 3e-05 0.019090084002721823 0.01065196207755364 0.005996309541389248 0 0 0
1185 1 3100.0 2.2024092201537815e-05 0.0036335792942503832 0.0001625243666889049 0.009487401027329445 0 0 0
1186 1 3100.0 9.430063442983766e-06 0.008087973909247521 0.005953531787477363 0.0040396776084409254 0 0 0
1187 1 3100.0 1.9096333747080158e-05 0.0011390675640542878 0.006199782418504138 0.00011193457975082997 0 0 0
1188 1 3100.0 8.106461035583194e-06 0.019156399920927002 0.004768967258439565 0.005988189727770733 0 0 0
1189 1 3100.0 0.00010290273362583437 0.009357140880055181 0.008669918808416067 0.005295506113917314 0 0 0
1190 1 3100.0 3e-05 0.006885670219796722 0.0006725129084153298 0.016751746193860065 0 0 0
1191 1 3100.0 8.004411089124228e-05 0.007028728069120587 0.014711602291415606 0.01979564394153244 0 0 0
1192 1 3100.0 3e-05 0.01959720894659101 0.003579033602559081 0.017747766835325394 0 0 0
1193 1 3100.0 2.1254863072249807e-05 0.011350471137462787 0.0004160488903267961 0.004340581553399707 0 0 0
1194 1 3100.0 9.712570375173297e-05 0.005632679810528268 0.011409872800974575 0.01232207552538837 0 0 0
1195 1 3100.0 1.7968155824516496e-05 0.013664718986696791 0.0022037515651232736 0.0015544573210422028 0 0 0
1196 1 3100.0 4.5252483394642165e-05 0.012485897689741272 0.01892127530730092 0.016767323483419996 0 0 0
1197 1 3100.0 9.810198315855938e-05 0.006828657121358174 0.0003100425095986483 0.014472957238305776 0 0 0
1198 1 3100.0 1.0262390490872779e-05 0.015619669944494279 0.013194627046633874 0.015537442699767628 0 0 0
1199 1 3100.0 0.00018339434608900793 0.019150479295371867 0.006804370064958833 0.015578772916648201 0 0 0
1200 1 3100.0 7.149261190732701e-05 0.019187137840449977 0.009789695827248698 0.007861567406825509 0 0 0
1201 1 3100.0 0.00022626884101935982 0.010149010814921247 0.017811236670932862 0.010149086855391247 0 0 0
1202 1 3100.0 1.8391050522305988e-05 0.00043562619662581697 0.01657958369133608 0.004096282289563945 0 0 0
1203 1 3100.0 6.72796374090149e-05 0.015307925244639968 0.0121493099458399 0.012040981381666042 0 0 0
1204 1 3100.0 7.037859770136357e-06 0.015128523152715853 0.003328933669480168 0.003657409459432318 0 0 0
1205 1 3100.0 2.5074058177957976e-05 0.011365250492232217 0.013040462918651742 0.01768916742707908 0 0 0
1206 1 3100.0 9.471638782441725e-05 0.007933899857275259 0.010429563532538511 0.012054708860325936 0 0 0
1207 1 3100.0 1.672291467842194e-05 0.01782996680385238 0.008658158277456163 0.008638930518579108 0 0 0
1208 1 3100.0 9.719160252748981e-05 0.009018494647987348 0.016208871891900407 0.0007376234048598119 0 0 0
1209 1 3100.0 8.930702192442266e-05 0.0013469809705708572 0.0042568081561150765 0.001845747426690024 0 0 0
1210 1 3100.0 2.0912491662818472e-05 0.01841294781846152 0.006371258840135339 0.017465417120122107 0 0 0
1211 1 3100.0 2.8934466574721036e-05 0.009022989184520217 0.01943811387977603 0.0085194851499974 0 0 0
1212 1 3100.0 7.363628008911681e-05 0.0195556638302136 0.01418741143967374 0.005485364612256926 0 0 0
1213 1 3100.0 1.499948674620148e-05 0.018633815615652024 0.0077933088683546994 0.01380908676030167 0 0 0
1214 1 3100.0 0.00012791199809267058 0.006468385520670104 0.014643710466754136 0.0003868783852803957 0 0 0
1215 1 3100.0 7.771650238960489e-05 0.011966724133065173 0.017914469057750775 0.0158125299933506 0 0 0
1216 1 3100.0 7.149216628386734e-05 0.013836691729865059 0.010542167405168093 0.01859835929643419 0 0 0
1217 1 3100.0 0.0001915470587041286 0.010409651519091283 0.002987816173574558 0.009199633572511537 0 0 0
1218 1 3100.0 5.423993465124647e-05 0.003990370330276227 0.009045321322600119 0.0011477868285204454 0 0 0
1219 1 3100.0 1.3880082534186809e-05 0.006703437592334464 0.0014823198717945293 0.0015246191848675465 0 0 0
1220 1 3100.0 0.00012183816380495309 0.017902786442805484 0.012192183111955688 0.000726222806173245 0 0 0
1221 1 3100.0 0.0001369699739820364 0.0017696422654698717 0.005324114930195421 0.009945804892650685 0 0 0
1222 1 3100.0 3e-05 0.018458478596626318 0.01712221788385387 0.013207394802967523 0 0 0
1223 1 3100.0 7.508395559922398e-05 0.004559821900888004 0.014552256533336805 0.011994372413260665 0 0 0
1224 1 3100.0 0.00016737921123935793 0.0047589798916845266 0.0009377903404557588 0.013021596758744132 0 0 0
1225 1 3100.0 5.685057111809008e-05 0.010784038773707247 0.004520759382116469 0.005165227369659334 0 0 0
1226 1 3100.0 2.2407818000739224e-05 0.007570076239608123 0.019962651725947966 0.005410566608058344 0 0 0
1227 1 3100.0 6.490505931252012e-05 0.011709216114521878 0.01734620727854121 0.006172504829930838 0 0 0
1228 1 3100.0 6.987942005466969e-06 0.015807355571805154 0.018669740112199247 0.000132320671744918 0 0 0
1229 1 3100.0 3e-05 0.018753841879970715 0.011942316349930135 0.016782441663076204 0 0 0
1230 1 3100.0 0.00015948099494313123 0.003661138048641831 0.0010951825830280717 0.01970786477122011 0 0 0
1231 1 3100.0 0.0001138895340376162 0.011087773920559946 0.0175119363283845 0.0037805058471960485 0 0 0
1232 1 3100.0 7.096413681547963e-06 0.0022197442909142333 0.005538194741710286 0.0009441390757631883 0 0 0
1233 1 3100.0 1.1124099656062708e-05 0.0013278500067060207 0.01906177018148134 0.003039448551846734 0 0 0
1234 1 3100.0 1.2361778865619615e-05 0.004133242751882512 0.019918603620025465 0.01494919848063548 0 0 0
1235 1 3100.0 4.0954704123094975e-05 0.016012239388305174 0.0012012133226732466 0.01451636244615547 0 0 0
1236 1 3100.0 5.084592035227431e-05 0.01722151571808145 0.01737577171952685 0.00979907361375659 0 0 0
1237 1 3100.0 2.7065591434531433e-06 0.0024200854598310337 0.011753024528225697 0.008598722293384304 0 0 0
1238 1 3100.0 7.847910174389358e-05 0.009369588174062646 0.011923314230784701 0.005446327437013606 0 0 0
1239 1 3100.0 1.5982334371924643e-05 0.019907962708170197 0.00018956749244218997 0.006456253029031628 0 0 0
1240 1 3100.0 4e-05 0.0064421657457647856 0.014817730749449991 0.0062966072391153274 0 0 0
1241 1 3100.0 0.00014693078248430145 0.007356876776617516 0.01562672549178136 0.012152760306141932 0 0 0
1242 1 3100.0 0.00025175316664718196 0.0025298940785604923 0.012179556969666404 0.017324878639625788 0 0 0
1243 1 3100.0 5.333188313988566e-05 0.014848227231184006 0.019395343839465184 0.01744509354420274 0 0 0
1244 1 3100.0 0.00010005711453198356 0.006095625775514412 0.006899269405590403 0.01969410500685385 0 0 0
1245 1 3100.0 1.1087393090783625e-05 0.014092269665536991 0.01163103969534802 0.005601190390205599 0 0 0
1246 1 3100.0 0.0001614895326597614 0.013050313109512107 0.010364010461845907 0.01495789769133173 0 0 0
1247 1 3100.0 8.372607920944342e-05 0.0022657294489274067 0.015422508612130587 0.00630136053577915 0 0 0
1248 1 3100.0 4.722427107856307e-05 0.0030478441136572486 0.012802678575039654 0.006919860975978313 0 0 0
1249 1 3100.0 0.00012336740866349395 0.01916430997641213 0.016918292626820434 0.0017317038820931381 0 0 0
1250 1 3100.0 0.00015721817849532612 0.0035373110158282615 0.006048878948501091 0.017434369016646637 0 0 0
1251 1 3100.0 6.0148330398083066e-05 0.014116724670405954 0.0030448610063358817 0.018631758004901876 0 0 0
1252 1 3100.0 0.00011730557497297214 0.007273888355087694 0.0002652437547436588 0.006243281730071697 0 0 0
1253 1 3100.0 8.599450472239345e-05 0.0060439253800639225 0.019223440793370322 0.019621819868563744 0 0 0
1254 1 3100.0 0.0001300454211710463 0.014888626276595072 0.006687428267549467 0.005884820242066259 0 0 0
1255 1 3100.0 4.409977509664534e-06 0.013419990669925694 0.013689905484703864 0.017678906837187203 0 0 0
1256 1 3100.0 6.856776267007423e-06 0.010318939477195537 0.017698105099935437 0.006372947109232361 0 0 0
1257 1 3100.0 3e-05 0.0006942638371154457 0.0020433040478836564 0.0070555700304494075 0 0 0
1258 1 3100.0 7.796790949505366e-06 0.007387070884932974 0.009767470855930596 0.01180134920278169 0 0 0
1259 1 3100.0 0.00011613022547615737 0.019852305961702545 0.00858932389056527 0.003692343341192889 0 0 0
1260 1 3100.0 0.00017914603174291205 0.016171551091496754 0.005093588070904016 0.017723776488563835 0 0 0
1261 1 3100.0 0.00019332870945694422 0.0154716996163698 0.009276990441350075 0.009425218433984686 0 0 0
1262 1 3100.0 8.251844666868248e-05 0.002853018890077248 0.0017252349891592983 0.0053713600591358355 0 0 0
1263 1 3100.0 0.0001823386126788162 0.005471993263378158 0.01437102153102675 0.014837847919678682 0 0 0
1264 1 3100.0 8.103194398020732e-05 0.00031738551208536516 0.005804532252912755 0.0021494823113289287 0 0 0
1265 1 3100.0 8.785461886833312e-06 0.014982624155777597 0.0012011565080296757 0.01742439016518051 0 0 0
1266 1 3100.0 7.938661567099983e-05 0.015309515914243912 0.016689817544889553 0.004773045301278461 0 0 0
1267 1 3100.0 7.086042021761837e-05 0.004022869502591275 0.005122143276283474 0.01790237035787538 0 0 0
1268 1 3100.0 0.00011516526064504522 0.009838392289878645 0.002624085113177737 0.01563264214741256 0 0 0
1269 1 3100.0 5.743613151456142e-06 0.0001797019859054379 0.006326095401814911 0.006749648520534923 0 0 0
1270 1 3100.0 0.00018187006585541497 0.0036183276513995217 0.003334090386903076 0.0088169350125172 0 0 0
1271 1 3100.0 0.00012588187826876278 0.01126239045027915 0.01045158819847612 0.00911576569512033 0 0 0
1272 1 3100.0 4.747627543871883e-05 0.0168244567291964 0.013585344597611954 0.004887942212952527 0 0 0
1273 1 3100.0 1.917945328689321e-05 0.009652923292629253 0.01112655519165015 0.014953600403673543 0 0 0
1274 1 3100.0 4e-05 0.01248168634838057 0.005212233702823724 0.006305470522784483 0 0 0
1275 1 3100.0 1.6738934694188044e-05 0.008149379702905139 0.01937478812354079 0.00360768085278104 0 0 0
1276 1 3100.0 1.2557735944942706e-05 0.0016411045529968736 0.006490501060875381 0.008770145306155828 0 0 0
1277 1 3100.0 6.229565514361328e-06 0.006657432428273835 0.005100584174320547 0.010809253456155979 0 0 0
1278 1 3100.0 9.132896455560689e-05 0.013931884806037699 0.013779369730448965 0.00015729594427504095 0 0 0
1279 1 3100.0 4.58948518385329e-05 0.01373621362923425 0.007520805252069503 0.009714166138629228 0 0 0
1280 1 3100.0 0.00013374696814130052 0.012449019219260282 0.011205213137167318 0.008312300090714524 0 0 0
1281 1 3100.0 0.00017003903502751691 0.0022997523601029956 0.013792141191903397 0.008966621890527052 0 0 0
1282 1 3100.0 7.795658798238963e-06 0.006391840724708371 0.011045752370453205 0.013098855668836036 0 0 0
1283 1 3100.0 5.5516949543553386e-05 0.012235701621954148 0.01401998703509511 0.01121519897793447 0 0 0
1284 1 3100.0 3.974073596638854e-06 0.01259246445468365 0.008596414289483044 0.00016653549548908034 0 0 0
1285 1 3100.0 1.56683162054723e-05 0.015846413667599993 0.01393275197369767 0.008649735017409569 0 0 0
1286 1 3100.0 1.2837951433805988e-05 0.010779735290914685 0.011785202020869474 0.0018120417021141894 0 0 0
1287 1 3100.0 8.815346132076102e-05 0.004960018002795993 0.0016294460927206594 0.01262915740321671 0 0 0
1288 1 3100.0 0.0001849592671563929 0.00217691219826717 0.005112905711998502 0.008734704519092881 0 0 0
1289 1 3100.0 0.00012702490791146806 0.016143048390738882 0.015385841362862827 0.01703028970127887 0 0 0
1290 1 3100.0 7.62468548863345e-06 0.008252297367858362 0.015239113800144697 0.01960184819977249 0 0 0
1291 1 3100.0 2.5136602300580024e-05 0.01127617423242651 0.011809866038314314 0.006938830440817625 0 0 0
1292 1 3100.0 0.00013735145357408733 0.0179682494984627 0.010431445719549437 0.010936832407965296 0 0 0
1293 1 3100.0 6.570711633407575e-05 0.013622129073338467 0.014196616441318945 0.007604692717039485 0 0 0
1294 1 3100.0 7.81987207776651e-05 0.0024809873445238413 0.019524941338049225 0.01454596942103858 0 0 0
1295 1 3100.0 7.572452312122362e-05 0.008583341932880349 0.0013528720736851493 0.005435503915839434 0 0 0
1296 1 3100.0 1.2486017600147214e-05 0.011328100934802922 0.00915130659965175 0.018773680188247075 0 0 0
1297 1 3100.0 4.6774613422840894e-05 0.001195960174329524 0.009653474138810363 0.018567975845401766 0 0 0
1298 1 3100.0 6.549196028420122e-05 0.00286613264819212 0.0019480714742324456 0.0024228136913127356 0 0 0
1299 1 3100.0 1.127812740666442e-05 0.007669149391661833 0.011238193480201908 0.009630830434872263 0 0 0
1300 1 3100.0 1.2606300896829962e-05 0.017875903974070864 0.00688149073158119 0.00922510885818965 0 0 0
1301 1 3100.0 7.883227675486084e-05 0.018316189718555143 0.01654932753974871 0.00926386355104427 0 0 0
1302 1 3100.0 0.00012822391092996325 0.008353171116613356 0.00046788010182707206 0.00030080964618044544 0 0 0
1303 1 3100.0 9.563806088642946e-05 0.008731885870136149 0.012400814801661381 0.01966279132466349 0 0 0
1304 1 3100.0 1.3966425374140506e-05 0.009652418331791448 0.004776803282407383 0.005526000565986909 0 0 0
1305 1 3100.0 1.3719469990146351e-05 0.006404279369660069 0.011359831380323435 0.007317903773122822 0 0 0
1306 1 3100.0 5.666669722006267e-05 0.0013282106057348846 0.017734581743867526 0.01630915435500334 0 0 0
1307 1 3100.0 8.78550401253369e-06 0.009209432341096252 0.017421251681708935 0.0176754617399684 0 0 0
1308 1 3100.0 6.256022243074419e-05 0.019103589025485014 0.009053383133551104 0.01457826152571471 0 0 0
1309 1 3100.0 1.4859910790712521e-05 0.00901193090817448 0.007588707651883048 0.007423986277296921 0 0 0
1310 1 3100.0 1.653158759856315e-05 0.006280028743859116 0.01785139417982064 0.0018657204185445612 0 0 0
1311 1 3100.0 1.5307635054980697e-05 0.006723398177920442 0.014697679343719091 0.003096474980286407 0 0 0
1312 1 3100.0 5.166459741239637e-05 0.011716239116607718 0.005575620963784781 0.005040962484814072 0 0 0
1313 1 3100.0 7.871029216107926e-05 0.010515337254753059 0.01567103797370449 0.0010284848688221577 0 0 0
1314 1 3100.0 4e-05 0.014019545454808775 0.014733597726471627 0.012393981638329315 0 0 0
1315 1 3100.0 9.935331711934545e-05 0.007334306808984116 0.01357100131276263 0.015836081298240105 0 0 0
1316 1 3100.0 7.583623055429185e-06 0.005329833213530527 0.003782363083048723 0.0032632231232657227 0 0 0
1317 1 3100.0 4.3305934293587455e-05 0.0012989537273852174 0.012650957234069206 0.0013197451958187334 0 0 0
1318 1 3100.0 0.00013746335698396498 0.00453352159081296 0.012279573906468041 0.01092428670139707 0 0 0
1319 1 3100.0 6.503751536722284e-05 0.008058324134289158 0.009360609245234429 0.01652322748014554 0 0 0
1320 1 3100.0 8.202581677185122e-05 0.016889399355189932 0.007073170763377661 0.01631400995682592 0 0 0
1321 1 3100.0 3e-05 0.005556615251625534 0.010144992403470453 0.0034645068871984666 0 0 0
1322 1 3100.0 7.434617992324467e-05 0.006155945411878948 0.019787697909084374 0.0034906485248441 0 0 0
1323 1 3100.0 7.59325961344807e-06 0.007802691917518738 0.012870732681762266 0.0024018270880738096 0 0 0
1324 1 3100.0 9.159206046188326e-05 0.013117697552423879 0.007487391038211249 0.006069845844596219 0 0 0
1325 1 3100.0 4.469755560744121e-05 0.007461511158046074 0.014401946738852294 0.010153653852239838 0 0 0
1326 1 3100.0 1.3906475303605981e-05 0.012210498751035513 0.003073506217459274 0.009368212855561216 0 0 0
1327 1 3100.0 9.742401960486234e-06 0.008105739594643262 0.006983258645138345 0.01194460357050134 0 0 0
1328 1 3100.0 1.0554245953763682e-05 0.0016686837833096778 0.004363735314810056 0.012002797620788003 0 0 0
1329 1 3100.0 0.00011092917212947605 0.015698038294136893 0.006415519220205275 0.009342483081889319 0 0 0
1330 1 3100.0 4e-05 0.0007532937753898805 0.0019364038519494422 0.007174242750114415 0 0 0
1331 1 3100.0 4e-05 0.01275819969066083 0.002713155129959229 0.012891541723739327 0 0 0
1332 1 3100.0 5.168853006115468e-05 0.00033637766121166757 0.011260413979891559 0.013777912236459255 0 0 0
1333 1 3100.0 0.00018053042904564567 0.01823694722439068 0.017614009113442453 0.0182289861302823 0 0 0
1334 1 3100.0 0.00014528494964706896 0.010502076748656676 0.015372739479767904 0.003403774399528549 0 0 0
1335 1 3100.0 1.898388912225734e-05 0.01983648605321247 0.0008486392484697034 0.0026395484374284557 0 0 0
1336 1 3100.0 0.00011304003750810788 0.01447606663736932 0.0032774710773599692 0.0019588237964693373 0 0 0
1337 1 3100.0 7.148657056677864e-05 0.009881290229254599 0.011714164423466455 0.0008586787530993874 0 0 0
1338 1 3100.0 7.679712065036698e-05 0.00856287964112836 0.01681629851199222 0.004270640500480541 0 0 0
1339 1 3100.0 2.2447049271939526e-05 0.01241101084185328 0.011425445377276317 0.007517946158388895 0 0 0
1340 1 3100.0 8.329664663942152e-05 0.0008722469258905136 0.010099679569879798 0.010621881070070062 0 0 0
1341 1 3100.0 0.00010331474843318439 0.013688310139731208 0.010057817443669508 0.0007653410370470927 0 0 0
1342 1 3100.0 8.193503779622481e-06 0.0127248679270625 0.006276744612081257 0.011483922782910223 0 0 0
1343 1 3100.0 0.0001689589135538279 0.016908478769801113 0.0009095594294458783 0.0035847378675823625 0 0 0
1344 1 3100.0 8.637744280994445e-06 0.0054261884990427865 0.011942520452066474 0.0033509014346101507 0 0 0
1345 1 3100.0 7.875801229526932e-05 0.011538732367367613 0.006249455895406385 0.004910755256861688 0 0 0
1346 1 3100.0 6.468041774697999e-05 0.004147204742218294 0.0030145809792217447 0.01878455870382889 0 0 0
1347 1 3100.0 6.767984110935164e-06 0.0020315613510878574 0.006452628613235003 0.008835555364346617 0 0 0
1348 1 3100.0 5.798439967829176e-05 0.009301948532944452 0.002148270973689977 0.005015372830355246 0 0 0
1349 1 3100.0 0.00014991825265879254 0.008224111929422033 0.003938320489324806 0.007301916743038687 0 0 0
1350 1 3100.0 9.549042234008902e-05 0.006970515709226532 0.017704189939411252 0.014770219383550358 0 0 0
1351 1 3100.0 2.8304550672307296e-05 0.0024507662558985494 0.01942600431121003 0.009547763508302259 0 0 0
1352 1 3100.0 1.0891085371198652e-05 0.002703965005326379 0.010918858035748697 0.00023627139473064344 0 0 0
1353 1 3100.0 0.00011179628067872795 0.013007617230077224 0.0009734569813780741 0.017275815079002412 0 0 0
1354 1 3100.0 0.00011008903227643887 0.007032021330253981 0.015583857746976137 0.0037269346401620908 0 0 0
1355 1 3100.0 6.813035797146508e-05 0.01634827569516723 0.00048135182178065766 0.014167390369440843 0 0 0
1356 1 3100.0 0.00014002543244234073 0.005617699188341889 0.002040006914794459 0.008797563768019885 0 0 0
1357 1 3100.0 1.1734742728011828e-05 0.009042250008253294 0.0049937892228767 0.0050186775225480006 0 0 0
1358 1 3100.0 4e-05 0.010208765659258462 0.0019826351587201676 0.016851164032492857 0 0 0
1359 1 3100.0 0.00019781895267321722 0.0075697636281606825 0.01040756499789758 0.0188723989011014 0 0 0
1360 1 3100.0 6.379540716940019e-05 0.008059152573071143 0.011686581942436746 0.00678270677425474 0 0 0
1361 1 3100.0 6.49931425204475e-05 0.017926201133948542 0.00887293881803369 0.013872615482573855 0 0 0
1362 1 3100.0 5.824728824067895e-05 0.017475488749653906 0.0032049734979238916 0.016048089360885226 0 0 0
1363 1 3100.0 0.00012893715420770615 0.01867590790231639 0.01697068748726416 0.019222660064105113 0 0 0
1364 1 3100.0 9.575003440340423e-05 0.007044551273511987 0.004484554439495246 0.0150167444099192 0 0 0
1365 1 3100.0 2.8669086114141692e-05 0.013174111074988969 0.013089688531994666 0.00024563606866311044 0 0 0
1366 1 3100.0 1.120411058823881e-05 0.011138901471135963 0.008996376743416969 0.0028679859581623034 0 0 0
1367 1 3100.0 0.00012097168235800713 0.013033019398212395 0.016716691007891367 0.006917198271570289 0 0 0
1368 1 3100.0 0.00021221381095999913 0.0066020539662540395 0.009114155673540873 0.004143147291395446 0 0 0
1369 1 3100.0 0.00011901777314685515 0.018364248133593945 0.002101626950239847 0.0019917677443973825 0 0 0
1370 1 3100.0 0.0001286307781241942 0.013516925156605748 0.0005340833282023198 0.019135957276042018 0 0 0
1371 1 3100.0 3e-05 0.00506253881739706 7.921363623914366e-05 0.012052642838719848 0 0 0
1372 1 3100.0 4.4886327788234154e-05 0.006632065827686424 0.012202919906452009 0.01225396106006479 0 0 0
1373 1 3100.0 0.00014467861662926124 0.011996354683411831 0.01107265496942151 0.016478709051088374 0 0 0
1374 1 3100.0 0.00016264982766033673 0.012598380707972484 0.0017046027143880244 0.018084186028035937 0 0 0
1375 1 3100.0 6.1692455156611645e-06 0.011792054313265273 0.002702619385751165 0.0007730249174094803 0 0 0
1376 1 3100.0 4e-05 0.010059345451619002 0.004599468539237716 0.0162451803885052 0 0 0
1377 1 3100.0 4.247239136533008e-05 0.01455781938776425 0.016821965184269184 0.01487453690232076 0 0 0
1378 1 3100.0 4.6354549085865755e-05 0.0006672244533442135 0.01790366529060197 0.011989284992560821 0 0 0
1379 1 3100.0 9.053490723994786e-05 0.013629926247435552 0.009469219672619468 0.01482371979604133 0 0 0
1380 1 3100.0 6.019551383469986e-05 0.0035052377631712268 0.009610183320850086 0.019920579726167 0 0 0
1381 1 3100.0 9.26561252221365e-06 0.0019748621601668767 0.013353604011615285 0.0036426606501388007 0 0 0
1382 1 3100.0 6.793429398202957e-05 0.006119714977669963 0.005823396612398185 0.004896475808887826 0 0 0
1383 1 3100.0 0.00018983087548057596 0.002326686802805156 0.0038966864220736984 0.008298161825921385 0 0 0
1384 1 3100.0 8.350679393729083e-05 0.018276122812855778 0.01787405536533613 0.0048044218742585906 0 0 0
1385 1 3100.0 3e-05 0.004591738518163972 0.01826863785082754 0.016925226354913177 0 0 0
1386 1 3100.0 1.9220153838579966e-05 0.006328623630767549 0.002955845456862537 0.004170721663197608 0 0 0
1387 1 3100.0 0.00013026284647061937 0.018586658026926765 0.01769712060137146 0.01059961200624872 0 0 0
1388 1 3100.0 0.00018368374806853973 0.010940681306718958 0.016076603834039645 0.018344367148508494 0 0 0
1389 1 3100.0 0.0001764612826401021 0.0016443426405775424 0.013809209651002423 0.011549150977358076 0 0 0
1390 1 3100.0 7.928043397532804e-05 0.011552167590130377 0.013732580039063056 0.007920348269166613 0 0 0
1391 1 3100.0 1.2788279498329246e-05 0.0022604686324466327 0.0012820325509651084 0.018910951156440415 0 0 0
1392 1 3100.0 7.438054920798156e-05 0.015660993513999903 0.008162207733349434 0.016667905429633933 0 0 0
1393 1 3100.0 1.0738373542934456e-05 0.015032716701073248 0.006838992727116585 0.004318611031911464 0 0 0
1394 1 3100.0 8.936204399253367e-05 0.007581999979530413 0.01594185254442665 0.011251952886089857 0 0 0
1395 1 3100.0 5.096193213882463e-06 0.0013881245863323272 0.01163984933014687 0.0028753816765579167 0 0 0
1396 1 3100.0 4e-05 0.012053288014934847 0.014585417438846667 0.0015765189614440134 0 0 0
1397 1 3100.0 9.331050180718748e-05 0.0019548494307476674 0.009785491362763249 0.0005437667920669162 0 0 0
1398 1 3100.0 4.904037543560979e-06 0.0035917193407305707 0.01974897056709236 0.0009881671050899093 0 0 0
1399 1 3100.0 7.788355057373722e-05 0.010203005638869538 0.017519890030326533 0.01814117520299948 0 0 0
1400 1 3100.0 4.867841547229847e-05 0.019583379618325618 0.019777269861737057 0.017901524776806323 0 0 0
1401 1 3100.0 5.317826412786634e-05 0.017370127288801804 0.01296818593749836 0.014723958268882835 0 0 0
1402 1 3100.0 8.52119008474146e-06 0.004724422388144901 0.006202150485071327 0.01670268149492961 0 0 0
1403 1 3100.0 8.97185109208909e-05 0.005604234013498949 0.01981416063355934 0.012390686497966857 0 0 0
1404 1 3100.0 8.249128223540794e-05 0.011523848138170095 0.017459290552266846 0.007993827921660021 0 0 0
1405 1 3100.0 3e-05 0.018447660966856856 0.01321702972668494 0.016779539351411833 0 0 0
1406 1 3100.0 0.00014740582729374127 0.017157790239094396 0.009933325508573548 0.013566502144176517 0 0 0
1407 1 3100.0 2.3186783523112115e-05 0.00400019620343371 0.002747007123553636 0.00720020436026964 0 0 0
1408 1 3100.0 2.1588587359143525e-05 0.015537108589174736 0.002639682334915334 0.010915662729725861 0 0 0
1409 1 3100.0 0.00010309454887363209 0.0003944106125859883 0.005208846971451219 0.015016195356340209 0 0 0
1410 1 3100.0 6.354721178359569e-05 0.0007317921987665864 0.006792928221962018 0.0021446948143229267 0 0 0
1411 1 3100.0 0.0002096112773351455 0.009607390842137584 0.017422461630069018 0.007466233474992013 0 0 0
1412 1 3100.0 0.00010309316184999891 0.01799258765520805 0.01457235554446644 0.011075034308901987 0 0 0
1413 1 3100.0 0.00012543928676295204 0.011667116805692223 0.001365274242742372 0.009992070549870512 0 0 0
1414 1 3100.0 0.00012890025236618623 0.017622087296971407 0.0184035743982817 0.0016649531226889502 0 0 0
1415 1 3100.0 0.00016977266809237464 0.01077301247083642 0.004125961302642529 0.0008844289039895125 0 0 0
1416 1 3100.0 8.760032611778663e-05 0.012414356203298494 0.0026694609326121457 0.000686093790203449 0 0 0
1417 1 3100.0 4e-05 0.015317063311061613 0.0018569853196526746 0.010084252621760225 0 0 0
1418 1 3100.0 1.1191279526533515e-05 0.009658849898612001 0.0006361226044715269 0.011566178682473338 0 0 0
1419 1 3100.0 4.846045196027205e-05 0.017581481170008167 0.013281721625998983 0.011773820533892759 0 0 0
1420 1 3100.0 7.993121263635365e-05 0.01679155012190612 0.00039892448211699367 0.0004083880666693225 0 0 0
1421 1 3100.0 3e-05 0.01848215504144449 0.01731804127493043 0.0048894751682292915 0 0 0
1422 1 3100.0 5.725158323093014e-05 0.008783773181757526 0.005107802550857808 0.012865081525519203 0 0 0
1423 1 3100.0 0.0001833734977287763 0.0015820658557224125 0.0174405342118711 0.011023401368148309 0 0 0
1424 1 3100.0 1.1481939657030275e-05 0.019192150162456827 0.017995870131877992 0.0019508544175592497 0 0 0
1425 1 3100.0 2.5707744995950763e-05 0.0002113088969103195 0.0011816798648140465 0.011233352790329429 0 0 0
1426 1 3100.0 7.106053503800958e-05 0.019758870337830522 0.01608213064115905 0.017590410457188854 0 0 0
1427 1 3100.0 2.0451535898899646e-05 0.005678292096191088 0.01660180449113367 0.0013008734962139889 0 0 0
1428 1 3100.0 8.493148800573427e-05 0.004957520446157267 0.01082714473849403 0.0085783587135737 0 0 0
1429 1 3100.0 4.4361977656041355e-06 0.008244228791101715 0.01471275704907823 0.019567907961859615 0 0 0
1430 1 3100.0 1.2885412006386798e-05 0.015120692434686285 0.01040819983305211 0.018945924542204378 0 0 0
1431 1 3100.0 8.236573138025935e-05 0.017392645100288928 0.0010501999426934395 0.01690696142458866 0 0 0
1432 1 3100.0 0.00010067010431260266 0.015573460718650763 0.0010748895959829432 0.012422544034048 0 0 0
1433 1 3100.0 0.00010773300950903957 0.019345469052903515 0.019206843842566976 0.009125497075962542 0 0 0
1434 1 3100.0 0.00017155376365076224 0.002086867873059662 0.015884867429755912 0.004775275419930719 0 0 0
1435 1 3100.0 6.850092703587238e-05 0.014915696734461505 0.004208449684080832 0.00862204195398078 0 0 0
1436 1 3100.0 7.86634778893023e-05 0.015190392324359741 0.018144998921340607 0.01573498524425506 0 0 0
1437 1 3100.0 1.2630165851087447e-05 0.013571044790931937 0.00960998736158688 0.0013679569547121483 0 0 0
1438 1 3100.0 4.239653086458731e-06 0.01538158780643973 0.011402520741084759 0.012045985247577043 0 0 0
1439 1 3100.0 3e-05 0.00994503730448063 0.004450919172093187 0.014520406635719614 0 0 0
1440 1 3100.0 5.928678003093448e-05 0.011500017214791271 0.0008442918877722003 0.0038934558366975182 0 0 0
1441 1 3100.0 9.595177390402802e-05 0.013290431776958435 0.019305834351440752 0.0013825169101332462 0 0 0
1442 1 3100.0 8.778915608062248e-05 0.00026349127547195924 0.01149225754122576 0.00043979139417090884 0 0 0
1443 1 3100.0 0.00012694575834340638 0.00044594680155255395 0.001698544439136145 0.017892152951689458 0 0 0
1444 1 3100.0 6.133432427876082e-05 0.0188131415615362 0.009837273408842178 0.00428228404794367 0 0 0
1445 1 3100.0 3e-05 0.004031252010354959 0.00017424763707224567 0.0016054604089370873 0 0 0
1446 1 3100.0 2.7181524968094592e-05 0.0014529162700369085 0.0066291179983412355 0.01236734650780662 0 0 0
1447 1 3100.0 9.167329439905427e-06 0.004384422643190933 0.017875357114758718 0.018483238688423796 0 0 0
1448 1 3100.0 1.3332531630196915e-05 2.3197869933303076e-05 0.009132219738384078 0.009092299109541317 0 0 0
1449 1 3100.0 0.0002800770697453868 0.012109215135038 0.0014220889394479773 0.018135799565022558 0 0 0
1450 1 3100.0 0.0001316744409562973 0.010077620471591726 0.018110173556609755 0.009907480356050598 0 0 0
1451 1 3100.0 0.00013133012154477886 0.015069459119590872 0.014871657831183362 0.002693162336423391 0 0 0
1452 1 3100.0 6.502835781914043e-06 0.009684595807797762 0.014034177428803604 0.010057872640556203 0 0 0
1453 1 3100.0 0.0001719900804085483 0.004169623815553355 0.01564641011223962 0.013877269563039744 0 0 0
1454 1 3100.0 8.460068379547984e-06 0.008860763043755092 0.0015047839725125132 0.011340415701980853 0 0 0
1455 1 3100.0 3.2891544857732044e-06 0.015667918009207776 0.0026443195898923477 0.004346081334007883 0 0 0
1456 1 3100.0 5.6222729318893965e-05 0.008299160050017153 0.019685919968826182 0.012386278181579351 0 0 0
1457 1 3100.0 1.2367242256766187e-05 0.004915800620960459 0.0054880388430976635 0.0013160150296122432 0 0 0
1458 1 3100.0 4e-05 0.01048832742118699 0.006921241847198725 0.0006758317036562923 0 0 0
1459 1 3100.0 5.9845444055059833e-05 0.008314458508241447 0.012998405585186152 0.016115450375192776 0 0 0
1460 1 3100.0 3e-05 0.0013024884098535563 0.015466316056256304 0.01052349773818267 0 0 0
1461 1 3100.0 9.205221441819604e-06 0.01839211843528308 0.013270728948799649 0.014374621020611303 0 0 0
1462 1 3100.0 1.820510682956327e-05 0.01596583055950409 0.009349289892231048 0.01967656150638141 0 0 0
1463 1 3100.0 1.4106269158353891e-05 0.01621767532552408 0.018854789335718363 0.007666248619171484 0 0 0
1464 1 3100.0 0.00019386586031008786 0.003872067415199773 0.018057789877783274 0.016128589535304886 0 0 0
1465 1 3100.0 1.479891224840528e-05 0.017031199140845204 0.0111190107162494 0.0038859835289802103 0 0 0
1466 1 3100.0 0.00010671726864778039 0.011862664823171122 0.016931970177779435 0.006963586078956034 0 0 0
1467 1 3100.0 0.00011847486903123737 0.003183512864550484 0.019328637037402986 0.01579150084443361 0 0 0
1468 1 3100.0 7.790621616594436e-06 0.019943796080285243 0.01776808716243351 0.0008902202034120478 0 0 0
1469 1 3100.0 4.185403212626985e-05 0.016461110054802545 0.008371253098191436 0.013679381269117658 0 0 0
1470 1 3100.0 8.433770959673086e-05 0.013747482777283167 0.005384906162921635 0.01757715850882881 0 0 0
1471 1 3100.0 7.776511417480696e-05 0.01086414683695346 0.0005205787210407894 0.0011446857902822727 0 0 0
1472 1 3100.0 0.00014515525554621876 0.016435650450698728 0.011906251614396731 0.0071491046404816875 0 0 0
1473 1 3100.0 8.194676625265143e-06 0.011543654550299012 0.003009527651026643 0.004833069480576598 0 0 0
1474 1 3100.0 2.241611291188369e-05 0.019490139807765032 0.01704607734826045 0.008368095721502676 0 0 0
1475 1 3100.0 8.665416598540153e-05 0.01440094026136267 0.009219113284218773 0.008253722040843459 0 0 0
1476 1 3100.0 0.00013102793736388782 0.009289404487815907 0.013952375555706525 0.009719512487822591 0 0 0
1477 1 3100.0 4.8740226287793995e-05 0.011014679953270209 0.013191504743387837 0.006427996364414502 0 0 0
1478 1 3100.0 0.00014569105836966412 0.011720177128332374 0.016373494378613893 0.006811441259117346 0 0 0
1479 1 3100.0 1.959089551971648e-05 0.019139562078837925 0.0017378581113830685 0.01706533864781161 0 0 0
1480 1 3100.0 0.00010150845008390781 0.002604801790522001 0.014897059923317546 0.01899587686433932 0 0 0
1481 1 3100.0 8.095230408308782e-05 0.005107457649939516 0.01860569516305145 0.014274404195147156 0 0 0
1482 1 3100.0 0.00019364598019380852 0.014910712104235892 0.017663790794353578 0.016498468277147533 0 0 0
1483 1 3100.0 8.854100464342469e-05 0.008420362036473648 0.00907834439672551 0.006346019853828904 0 0 0
1484 1 3100.0 3e-05 0.0069569805530008515 0.01688399549642735 0.001367095374834329 0 0 0
1485 1 3100.0 8.228676809346676e-05 0.014839991998465385 0.012476252401775866 0.005723129757410336 0 0 0
1486 1 3100.0 6.302798187426927e-05 0.015632286090164413 0.001730402575556974 0.018541113543547698 0 0 0
1487 1 3100.0 2.588204500384198e-05 0.004339070248877256 0.017003741644615607 0.005147774995242418 0 0 0
1488 1 3100.0 0.00010409525350935888 0.01121777535588874 0.019457015942080626 0.00740277044069604 0 0 0
1489 1 3100.0 7.007149596079639e-05 0.01711515868153112 0.013995570483300903 0.016089848127891646 0 0 0
1490 1 3100.0 0.00016793833759657653 0.002423817578636415 0.019347014841484777 0.006711014265211538 0 0 0
1491 1 3100.0 9.65293108747373e-06 0.01303095875157476 0.00010619961210275526 0.004602654969133178 0 0 0
1492 1 3100.0 6.0532862044676774e-05 0.017431399521268154 0.0013491096266184245 0.01817700113269551 0 0 0
1493 1 3100.0 7.51086454303378e-05 0.018939196573177733 0.007166048390561027 0.019435408662064606 0 0 0
1494 1 3100.0 0.00019646200920985042 0.019778594350771415 0.015813074890622395 0.009597904671815516 0 0 0
1495 1 3100.0 4e-05 0.004070310046911198 0.0009415489786989313 0.0011064877226613162 0 0 0
1496 1 3100.0 0.00011754910356961623 0.009898497297255145 0.00021612710753041202 0.018235130426816945 0 0 0
1497 1 3100.0 1.1178280707831097e-05 0.013460765727621418 0.014644389670936397 0.01678156411420294 0 0 0
1498 1 3100.0 8.021655871595395e-05 0.0031643467816413954 0.0018501547405525543 0.012133317003014633 0 0 0
1499 1 3100.0 9.512448742749426e-05 0.006827659323621476 0.01756774218420635 0.003356541086222509 0 0 0
1500 1 3100.0 0.00017829021468822347 0.008808272331416633 0.007120526104925014 0.0062351608836763595 0 0 0
1501 1 3100.0 0.00010224403023471688 0.018411884032597404 0.0071239737873505455 0.004775026950353657 0 0 0
1502 1 3100.0 1.3962070434640887e-05 0.012317044080377353 0.013263790734360912 0.0075587403324541965 0 0 0
1503 1 3100.0 0.00014791980798884368 0.018360652879087586 0.018701550036938304 0.011004475074107217 0 0 0
1504 1 3100.0 3.2142011645732796e-06 0.01083771758972482 0.012591371106196247 0.017078107728032175 0 0 0
1505 1 3100.0 0.00010813972299598576 0.016018724464608832 0.009883228889633213 0.012478028313346589 0 0 0
1506 1 3100.0 0.00013606748184680632 0.013121213556980562 0.010882098408645267 0.006332930616294673 0 0 0
1507 1 3100.0 7.81002239715599e-06 0.016363046583883246 0.004325622627254436 0.007657139518874473 0 0 0
1508 1 3100.0 0.0001023008504903386 0.0008036854874147652 0.0013973281712052065 0.0034422961251938293 0 0 0
1509 1 3100.0 1.067591153132948e-05 0.013785885415705992 0.0021691695482286832 0.013417049042641743 0 0 0
1510 1 3100.0 7.087856420549066e-05 0.010354851569503656 0.012294210506459223 0.011714360524999832 0 0 0
1511 1 3100.0 0.00012566359076904456 0.017430188105357243 0.010247731076626694 0.004518618847993535 0 0 0
1512 1 3100.0 0.00017024847505196417 0.0009023193447445243 0.018708783770274677 0.00888542373796207 0 0 0
1513 1 3100.0 4.613384936017803e-05 0.0015701194621349519 0.0023207601666934076 0.017896397774486202 0 0 0
1514 1 3100.0 8.52732614076721e-05 0.0010039103649602974 0.004477646344794831 0.005102176622054568 0 0 0
1515 1 3100.0 5.013483388002736e-05 0.007194649044260855 0.01795013249166865 0.00592801947571742 0 0 0
1516 1 3100.0 0.00013585504853734772 0.007839365224683861 0.018532559480049057 0.003409072477619759 0 0 0
1517 1 3100.0 1.1672296697775028e-05 0.01530088030974939 0.0009071375737473809 0.013527900732064084 0 0 0
1518 1 3100.0 9.397157299265429e-06 0.004472070917553615 0.014788691096029484 0.01035580247858533 0 0 0
1519 1 3100.0 1.2726436674256763e-05 0.0059044049800334 0.0155106895277494 0.000386426072044035 0 0 0
1520 1 3100.0 9.204236396087122e-06 0.00820898495053274 0.018715573891507298 0.0005811462624918448 0 0 0
1521 1 3100.0 1.2800633209033878e-05 0.009951403492329753 0.0016791275600420961 0.0161564713463523 0 0 0
1522 1 3100.0 0.00014610607537589895 0.00317868369584015 0.012185453674664695 0.016852687278451368 0 0 0
1523 1 3100.0 8.813473283119612e-05 0.009536034602197714 0.01137043963849638 0.008186616632843651 0 0 0
1524 1 3100.0 8.672627948123522e-06 0.015362069787897444 0.017771297819435736 0.009131399252763395 0 0 0
1525 1 3100.0 0.00013025602397353115 0.01844274847188834 0.004359127464549964 0.00209799598197263 0 0 0
1526 1 3100.0 0.0001777078269611571 0.015056882756223227 0.006012160202301144 0.016445810888732607 0 0 0
1527 1 3100.0 7.341594292496948e-06 0.016385727820712195 0.0029798644996720876 0.011937511098049795 0 0 0
1528 1 3100.0 0.00018047782142192734 0.003970371370340223 0.013366452460639942 0.00842883415398245 0 0 0
1529 1 3100.0 1.4846961874066638e-05 0.014508994266479112 0.0012934559125028877 0.0038693022743908605 0 0 0
1530 1 3100.0 1.0849041812694848e-05 0.01605051283156057 0.0009482639153726993 0.00015298927517086978 0 0 0
1531 1 3100.0 7.861105839020461e-05 0.01010891996375209 0.0033186173082166816 0.010123050272847538 0 0 0
1532 1 3100.0 4e-05 0.010541462475287446 0.0011843936713927267 0.00919355852393728 0 0 0
1533 1 3100.0 1.5033976169921453e-05 0.008057933920024966 0.004264738093855239 0.01122740663762524 0 0 0
1534 1 3100.0 0.0001901626677037309 0.012371883239461876 0.003037916778381225 0.006323022899805518 0 0 0
1535 1 3100.0 7.709336451225857e-05 0.017536075846177966 0.011113063272416582 0.011431398707317603 0 0 0
1536 1 3100.0 8.561109333886472e-05 0.0059673355706937855 0.015860258631230816 0.013312465493021251 0 0 0
1537 1 3100.0 0.00011834759013232924 0.012155224117490588 0.00911630069075606 0.006444747805474192 0 0 0
1538 1 3100.0 0.00010354773661426957 0.017985718706453907 0.00037877250177723964 0.018010545346931393 0 0 0
1539 1 3100.0 1.1850386706744682e-05 0.01481024037802703 0.007912987240118893 0.00432455180611682 0 0 0
1540 1 3100.0 2.2463705885988118e-05 0.018676287391495978 0.002480137220609024 0.017468819334412727 0 0 0
1541 1 3100.0 8.583842516096386e-05 0.010668844769041145 0.012001497982521375 0.008294372144312077 0 0 0
1542 1 3100.0 4e-05 0.001896375942548744 0.013847887864518543 0.0027471911271659457 0 0 0
1543 1 3100.0 7.85647060625537e-05 0.00969950848909254 0.016540643611195466 0.007499109715300838 0 0 0
1544 1 3100.0 9.507552249555808e-05 0.006739173001095047 0.006322177675078315 0.005134101873624231 0 0 0
1545 1 3100.0 1.3695246682878331e-05 0.019798357077040012 0.013660086171530176 0.018602833904754354 0 0 0
1546 1 3100.0 2.0538592436332595e-05 0.0063969689993613075 0.00964499420106936 0.01988429744521231 0 0 0
1547 1 3100.0 6.658549555159474e-05 0.00040548508754762824 0.01785255081670995 0.005147035217307402 0 0 0
1548 1 3100.0 2.419582819532822e-05 0.0032140184726203273 0.0036380004816863255 0.018714114762600525 0 0 0
1549 1 3100.0 7.2685329809359415e-06 0.009602679808306766 0.008654290764041395 0.006385166749037344 0 0 0
1550 1 3100.0 1.7804321925434133e-05 0.011633704221903091 0.005558294204157423 0.011011301885182992 0 0 0
1551 1 3100.0 2.102981950232454e-05 0.0133224255709431 0.007407909604278078 0.003605995906257653 0 0 0
1552 1 3100.0 8.95674942314669e-05 0.010773185081031663 0.009690961957785361 0.001138775282335043 0 0 0
1553 1 3100.0 8.393340995357167e-06 0.014986581646112761 0.018837564727739887 0.004633199640411647 0 0 0
1554 1 3100.0 4.934462979469023e-05 0.015070441883643612 0.018346158903887456 0.008907905226201674 0 0 0
1555 2 7870.0 0.0003 0.01286209955702974 0.0055269592746032895 0.0036908092121499397 0 0 0
1556 1 3100.0 4.750263207955773e-05 0.010667487530968984 0.013592014679539268 0.002859429000150873 0 0 0
1557 1 3100.0 0.00012647324229528049 0.006274262161790994 0.008835973369956384 0.010287679707350202 0 0 0
1558 1 3100.0 0.0001923351153911846 0.001531176940208032 0.0029806391280792137 0.015617791936036483 0 0 0
1559 1 3100.0 4.6448678067034595e-05 0.019408750946104978 0.01852874292687792 0.019775277495062887 0 0 0
1560 1 3100.0 0.00012249632536615236 0.009098438560188967 0.009355012342208964 0.003501084389400602 0 0 0
1561 1 3100.0 0.00011296521675095852 0.011066995651248659 0.00810398376238443 0.00495142752227235 0 0 0
1562 1 3100.0 8.419966432302003e-05 0.010597279548677415 0.017114337140500983 0.018166042943834473 0 0 0
1563 1 3100.0 4.420347962253944e-06 0.001483820772215627 0.014924902026117052 0.011600229648238309 0 0 0
1564 1 3100.0 0.00010691828175475669 0.008160761087044726 0.016757670198017136 0.0105390964433954 0 0 0
1565 1 3100.0 2.7747659822692236e-05 0.015410620858025855 0.0015248745910856891 0.019737639612269715 0 0 0
1566 1 3100.0 1.0665386895963604e-05 0.0016178456316003971 0.019882015579040943 0.000266508058119989 0 0 0
1567 1 3100.0 4.157365565125545e-06 0.014591464413207758 0.0020094958943922573 0.005292004317799119 0 0 0
1568 1 3100.0 2.4234059536423692e-05 0.0022177047096096944 0.003523605743276797 0.0114585214391674 0 0 0
1569 1 3100.0 0.00017836436400414963 0.017030805144673013 0.000874175077928124 0.006139622465314063 0 0 0
1570 1 3100.0 7.060177997173749e-05 0.005719633259241621 0.0078049319129934 0.018526817577633924 0 0 0
1571 1 3100.0 8.837303749025254e-05 0.011819962471757529 0.001041581752557835 0.01436692626155097 0 0 0
1572 1 3100.0 5.671080808537585e-05 0.019390017588860935 0.009525110989011838 0.005776395327181971 0 0 0
1573 1 3100.0 4.956863416049931e-05 0.010030989120395553 0.01449464035090473 0.005338041802720098 0 0 0
1574 1 3100.0 5.128226154972481e-05 0.0027142533116482517 0.0103814398227226 0.010201217249594803 0 0 0
1575 1 3100.0 0.0002326301887176166 0.0033230029267920145 0.0014815828636390875 0.0015654157303708796 0 0 0
1576 1 3100.0 0.00010595367153230914 0.004738145551594261 0.003932458007696366 0.006678383454798115 0 0 0
1577 1 3100.0 9.719048188290689e-05 0.002707696997740469 0.0007745287875444185 0.001913063450434787 0 0 0
1578 1 3100.0 5.547424199320529e-05 0.012172867098648388 0.018703466024393944 0.0033562211058435795 0 0 0
1579 1 3100.0 7.619269365997658e-05 0.013437644609971917 0.012554295263023766 0.016380647392475335 0 0 0
1580 1 3100.0 8.451727726858154e-05 0.0007505379677984968 0.0021315522747660724 0.008050777160996893 0 0 0
1581 1 3100.0 0.00015387428262209575 0.004369679679902542 0.017421636431897914 0.012647641882203147 0 0 0
1582 1 3100.0 7.611072208614664e-06 0.011948977293958718 0.008692980690717013 0.007217972785622297 0 0 0
1583 1 3100.0 8.582676096329604e-05 0.01666080903403924 0.017743291188216454 0.015549177968599294 0 0 0
1584 1 3100.0 7.497661848292494e-05 0.017960362917091247 0.015041715372569677 0.0038421735297350774 0 0 0
1585 1 3100.0 1.739251046542922e-05 0.01366695592936029 0.018053440236881834 0.0026170942973274955 0 0 0
1586 1 3100.0 7.190370515474152e-05 0.010306776720336319 0.00048559087473845283 0.0005961967857676669 0 0 0
1587 1 3100.0 1.2612141686660243e-05 0.005475472486549321 0.0009605875662729029 0.019508442797359415 0 0 0
1588 1 3100.0 6.895578790415618e-05 0.01858635175335712 0.0014090326078593587 0.0016457980390255987 0 0 0
1589 1 3100.0 5.4557563597295176e-05 0.0019470360839832234 0.00937909734169117 0.017712730355044778 0 0 0
1590 1 3100.0 6.13914635648411e-05 0.004226784349144929 0.01294779221270602 0.011249625858179022 0 0 0
1591 1 3100.0 9.81606534168192e-05 0.014402912664871216 0.019759795012335844 0.004826048361339005 0 0 0
1592 1 3100.0 0.00010188887220402683 0.01894909275244493 0.015994493674209194 0.019309538735479144 0 0 0
1593 1 3100.0 4e-05 0.016013906069032285 0.01018663907126845 0.00894743111271262 0 0 0
1594 1 3100.0 6.588730823266991e-05 0.011792797202887327 0.006648256606546129 0.007849316191052617 0 0 0
1595 1 3100.0 6.259781498704212e-05 0.016691934086706953 0.014233543551666823 0.008534946548239655 0 0 0
1596 1 3100.0 7.837670266568166e-05 0.015577439309557685 0.004544517778913546 0.009990643998675353 0 0 0
1597 1 3100.0 4.988500830652076e-06 0.01913882249314255 0.0017212987558162844 0.004629988455224704 0 0 0
1598 1 3100.0 7.595855023542659e-05 0.00837711900888293 0.009880167182254337 0.008423569347718039 0 0 0
1599 1 3100.0 7.205206946502072e-06 0.01587850818775115 0.0046766547314496 0.009583783450820775 0 0 0
1600 1 3100.0 4e-05 0.003930272743009275 0.017671359902593494 0.014321005404736468 0 0 0
1601 1 3100.0 2.2967005365186477e-05 0.007882368792505043 0.01834970612860247 0.006362519310981975 0 0 0
1602 1 3100.0 0.00012683150917675617 0.0167059846262385 0.003791063652167563 0.019747491820524668 0 0 0
1603 1 3100.0 4e-05 0.014838097134895666 0.004936171230373249 0.013900358142037291 0 0 0
1604 1 3100.0 4e-05 0.008268215888125497 0.013504400989802873 0.019924614506024896 0 0 0
1605 1 3100.0 7.66770025514515e-05 0.00810800543456795 0.007431026484412197 0.002580888202479429 0 0 0
1606 1 3100.0 1.5183200718882733e-05 0.0004546900563437904 0.008550604396385109 0.019906785610374286 0 0 0
1607 1 3100.0 0.00010265357457722753 0.01344833349812269 0.008766836671655726 0.0007137632334359123 0 0 0
1608 1 3100.0 5.5815053133142166e-05 0.01740034311350046 0.015126524140559016 0.017764695735844674 0 0 0
1609 1 3100.0 0.00014323317099973544 0.002190353561061675 0.017911340864344913 0.004001252096437618 0 0 0
1610 1 3100.0 3e-05 0.004382930887535381 0.01641642668024503 0.005604538808926665 0 0 0
1611 1 3100.0 0.00014245780296196192 0.006288153559327344 0.0008355673824544749 0.0057088612817861 0 0 0
1612 1 3100.0 0.0002037420173443693 0.01738644064869276 0.009575743364789694 0.01756091661596897 0 0 0
1613 1 3100.0 6.041545612150742e-05 0.01315667103570397 0.010299858116304055 0.003895717775112895 0 0 0
1614 1 3100.0 8.50604617691553e-05 0.018204574039756394 0.0025029162253691747 0.019111660883690876 0 0 0
1615 1 3100.0 5.912422663367714e-05 0.009596892435145483 0.012595122097765601 0.0012253799329411065 0 0 0
1616 1 3100.0 5.3234269062156065e-05 0.006493842994620809 0.014775709332063867 0.0005260658423872014 0 0 0
1617 1 3100.0 5.5257330014873776e-05 0.012058543250702887 0.01065816379299096 0.0012208345103835651 0 0 0
1618 1 3100.0 1.0453398978856228e-05 0.004618204110178615 0.018707222284389848 0.012480192424254645 0 0 0
1619 1 3100.0 0.00020650295167681129 0.008712983710147284 0.00304120391841105 0.015328476473830507 0 0 0
1620 1 3100.0 6.15015039442713e-05 0.017535258204476913 0.018868624444282805 0.01463464396577906 0 0 0
1621 1 3100.0 0.00014301596370018847 0.007190104799604503 0.0003880914175691468 0.01765065129263257 0 0 0
1622 1 3100.0 0.00014150088006608942 0.0074688344347344695 0.01718556574141217 0.013772752413896229 0 0 0
1623 1 3100.0 0.0002499161247391895 0.006039449303528148 0.00041154186191377177 0.012681176491049271 0 0 0
1624 1 3100.0 7.684784965362227e-05 0.000961164408145825 0.005655526825667817 0.00850029330406003 0 0 0
1625 1 3100.0 3e-05 0.01449870145865428 0.016500349312157214 0.014603151300929271 0 0 0
1626 1 3100.0 4e-05 0.009482032015362907 0.010628525434502696 0.017721749809093506 0 0 0
1627 1 3100.0 7.94769790292095e-05 0.004726739328174447 0.015270872843338263 0.01037071872962458 0 0 0
1628 1 3100.0 1.09728645315047e-05 0.011145023110743254 0.0009771427393564605 0.004633814095542238 0 0 0
1629 1 3100.0 0.00011993394163155671 0.012825720225283457 0.011249902840481685 0.016847297474957994 0 0 0
1630 1 3100.0 8.069588897562064e-05 0.0027639462087371974 0.0041047162789125775 0.006320164102236786 0 0 0
1631 1 3100.0 0.00021944295006920246 0.018392022140426827 0.013493187070843949 0.0004166143721330935 0 0 0
1632 1 3100.0 3e-05 0.018769116594438688 0.002915998877316884 0.01895989184171026 0 0 0
1633 1 3100.0 7.072494746185926e-05 0.0038634826696052186 0.006251733504044019 0.012792882088494995 0 0 0
1634 1 3100.0 4.9474306207545215e-05 0.001733856414204932 0.006569059807471236 0.015269151353294498 0 0 0
1635 1 3100.0 9.21429984486178e-06 0.015488479385107536 0.009762156561802434 0.00043263134772640366 0 0 0
1636 1 3100.0 6.9367484667664355e-06 0.011151482526616581 0.019716385469503238 0.013873286762284599 0 0 0
1637 1 3100.0 6.985426738947392e-05 0.017115999510632373 0.003239469681892189 0.0172645122853697 0 0 0
1638 1 3100.0 0.0001809455807919679 0.0030514954314972706 0.0022608135908736577 0.01764003249779851 0 0 0
1639 1 3100.0 0.0001269098136032963 0.01771693369854736 0.011841346910304544 0.0023600727432665793 0 0 0
1640 1 3100.0 3.87940494465845e-06 0.013268502489270395 0.013922092467418665 0.014506517817194633 0 0 0
1641 1 3100.0 0.00015901891451186495 0.015326715767558303 0.01676525568181967 0.007776302917091872 0 0 0
1642 1 3100.0 4.493906653968947e-05 0.013582583981511551 0.019135743802886136 0.0027030962071812976 0 0 0
1643 1 3100.0 1.2140333997771332e-05 0.006644965062979933 0.006019043037321302 0.011605660193843946 0 0 0
1644 1 3100.0 0.00012007886161417383 0.0002192934118777421 0.002264964101030214 0.010419082805006781 0 0 0
1645 1 3100.0 8.467576162045563e-05 0.01552805262629683 0.0016070726752443751 0.005211309660499808 0 0 0
1646 1 3100.0 7.464751592772882e-05 0.000520191922921171 0.006787504854136169 0.005991050794142773 0 0 0
1647 1 3100.0 0.0001226388573136392 0.016694976726856155 0.0076199037214316565 0.005881805346105603 0 0 0
1648 1 3100.0 0.00017488816246154768 0.0037188029821617376 0.01968888499812073 0.007183326998068636 0 0 0
1649 1 3100.0 0.00021149542582391746 0.004706124451636577 0.01634051655466528 0.014594072418458554 0 0 0
1650 1 3100.0 1.5216501356721934e-05 0.001683739826039352 0.018980094744015207 0.011740018785419745 0 0 0
1651 1 3100.0 2.1522637212417555e-05 0.019166537337511797 0.01576595138454946 0.005277175095028988 0 0 0
1652 1 3100.0 0.00017200418243915725 0.01893483755380285 0.009955242497190313 0.011231581728803482 0 0 0
1653 1 3100.0 1.8635570929953254e-05 0.014208199197606833 0.018109887332349545 0.00552686961281172 0 0 0
1654 1 3100.0 3e-05 0.01939198170525548 0.011118330938686248 0.019122266117047017 0 0 0
1655 1 3100.0 1.875645061968012e-05 0.014922114721487021 0.008237748956567472 6.872170482614548e-05 0 0 0
1656 1 3100.0 1.1195041272253226e-05 0.01385628077482866 0.010176448875387616 0.0048350477343919 0 0 0
1657 1 3100.0 1.8846483273151747e-05 0.0020569628960499502 0.014954818921918285 0.013753033979069483 0 0 0
1658 1 3100.0 0.00011104841492276929 0.003303632607831241 0.014444086681326839 0.019487704121326128 0 0 0
1659 1 3100.0 0.0001395941675175853 0.014192034903752739 0.014383635521518808 0.007792113636225605 0 0 0
1660 1 3100.0 7.214445680484288e-06 0.019112007528879746 0.00045309870348949716 0.005210080782225498 0 0 0
1661 1 3100.0 9.605490589431259e-05 0.004043355088686804 0.006130139403062664 0.0026714318920940307 0 0 0
1662 1 3100.0 5.989802939111555e-05 0.001874365932800352 0.00432247612088544 0.009977893629997778 0 0 0
1663 1 3100.0 8.473647825189247e-05 0.006856724048931663 0.0067723171009319945 0.013826950040409548 0 0 0
1664 1 3100.0 9.00588166877849e-06 0.00982748956578077 0.0031169882976714736 0.00748565472293237 0 0 0
1665 1 3100.0 5.632024923594319e-06 0.0195068556578858 0.01500762263925506 0.015953193106964185 0 0 0
1666 1 3100.0 1.3350517676858514e-05 0.017869498500907428 0.002719783174146284 0.00040624279705939924 0 0 0
1667 1 3100.0 0.00014427883358698667 0.017223772950934052 0.014551714748926789 0.009102432780877936 0 0 0
1668 1 3100.0 6.739098516362787e-05 0.011193337842454146 0.0036079934961637623 0.016177535740786612 0 0 0
1669 1 3100.0 0.00010224411826515013 0.01630172469291939 0.0027934763124919104 0.011706045357883938 0 0 0
1670 1 3100.0 9.337474135122718e-05 0.01010155879950118 0.005879607670013349 0.017699169021560993 0 0 0
1671 1 3100.0 1.2188668911195e-05 0.011751037542578655 0.01095175821049284 0.01229833442240292 0 0 0
1672 1 3100.0 8.674429602485207e-05 0.0034596266533942106 0.002612410827991119 0.004388114739346798 0 0 0
1673 1 3100.0 2.1332096740234938e-05 0.0036275253793354293 0.01077396581574841 0.007564779706491938 0 0 0
1674 1 3100.0 4.444595041046028e-06 0.005609990876163926 0.008086305732264827 0.01581527752531428 0 0 0
1675 1 3100.0 9.176653438443813e-06 0.017868568810856286 0.000860648783903581 0.01993853355216717 0 0 0
1676 1 3100.0 7.730380091554744e-05 0.019640971836271396 0.0010322852834122953 0.0018598599423919942 0 0 0
1677 1 3100.0 1.3027729303184088e-05 0.004695161906700663 0.007440807063673209 0.009019259727414339 0 0 0
1678 1 3100.0 4e-05 0.016004235604912657 0.012517808553442755 7.630356768216574e-05 0 0 0
1679 1 3100.0 6.670158470486005e-06 0.011924078943637685 0.005591457907363656 0.012182509536277754 0 0 0
1680 1 3100.0 1.3549446645331037e-05 0.007018030900266846 0.008629582928273432 0.009406228199504553 0 0 0
1681 1 3100.0 0.00010158775219974698 0.005097392251823815 0.0029398891962724247 0.00425355752249307 0 0 0
1682 1 3100.0 5.0408499781392496e-05 0.0009066452999741842 0.006952982503453238 0.0186866835284215 0 0 0
1683 1 3100.0 0.0001744176339315349 0.019214652673877973 0.0033550815649034697 0.005336856351742509 0 0 0
1684 1 3100.0 5.761057287279592e-06 0.0013166528212943027 0.013579103778213574 0.011477060621786201 0 0 0
1685 1 3100.0 0.00019121101214664688 0.012753430865827007 0.01505338831400848 0.0062620925213510295 0 0 0
1686 1 3100.0 0.00010078753572206615 0.016134006159600166 0.00731556512213575 0.0003436468781055374 0 0 0
1687 1 3100.0 0.00011814205057268463 0.005931316583874723 0.01048121777058065 0.0129686392759285 0 0 0
1688 1 3100.0 1.1237717852296265e-05 0.017801286496055103 0.0153744402407005 0.010782471559402394 0 0 0
1689 1 3100.0 4.94242498238992e-05 0.006871222276728009 0.01391446828161903 0.012287199137639324 0 0 0
1690 1 3100.0 7.070658739418522e-05 0.01771491533460066 0.01616696329131677 0.005907147914941853 0 0 0
1691 1 3100.0 7.823196536377253e-05 0.0035709852498817508 0.004858549187230612 0.01061292821908215 0 0 0
1692 1 3100.0 3e-05 0.00019708281607418802 0.0036537747707927307 0.0071202546395194655 0 0 0
1693 1 3100.0 1.395373300629791e-05 0.017509056442315755 0.002537598997103722 0.0008053304869762079 0 0 0
1694 1 3100.0 0.00010881058525963926 0.0031561437424973233 0.006992964716173918 0.00017720805752935459 0 0 0
1695 1 3100.0 1.4699939075085518e-05 0.0017821980063327646 0.006773931064946945 0.0050043616817033 0 0 0
1696 1 3100.0 0.00010715866462460374 0.004351453559630052 0.001273135224269733 0.006739775510535439 0 0 0
1697 1 3100.0 0.00021080384078412873 0.007354975385322266 0.002593053073251211 0.012579541080721877 0 0 0
1698 1 3100.0 1.3463983342618329e-05 0.018020224649200188 0.003312227784392898 0.0157689909437686 0 0 0
1699 1 3100.0 1.819116200733078e-05 0.0021743858203559156 0.01166897308901302 0.005985283510350407 0 0 0
1700 1 3100.0 1.8548655260220364e-05 0.015979010969468008 0.0033379738376617344 0.006453497315243705 0 0 0
1701 1 3100.0 4.5648054520562145e-05 0.015266742500111457 0.01344172224463002 0.0026700573309121766 0 0 0
1702 1 3100.0 0.00010508806864399665 0.005859913488580535 0.01920065799753745 0.012791678713235522 0 0 0
1703 1 3100.0 2.8209824139610557e-05 0.001833042158696259 0.004381610638336013 0.019058433452368302 0 0 0
1704 1 3100.0 1.0107172719373773e-05 0.019748102626846405 0.013562862541000744 0.0027645801018005424 0 0 0
1705 1 3100.0 7.209364555993902e-05 0.004302444500638627 0.0066681171962749974 0.008676339381950848 0 0 0
1706 1 3100.0 1.2441736006074388e-05 0.0050586006102108835 0.019153437598118227 0.018130942611822607 0 0 0
1707 1 3100.0 6.055080295618173e-06 0.01657333859070545 0.0046027731210736885 0.0006498021417830072 0 0 0
1708 1 3100.0 8.392414299744518e-05 0.017980142826420794 0.0014904536974949328 0.019473563808711895 0 0 0
1709 1 3100.0 0.0001704674346180267 0.019144637932035215 0.004579162650395826 0.010365857390682217 0 0 0
1710 1 3100.0 8.684002327412488e-05 0.003580168618582828 0.00660785497705121 0.0131163996997471 0 0 0
1711 1 3100.0 9.177880398685246e-05 0.0180734349357715 0.00015362262698883605 0.012780477252427943 0 0 0
1712 1 3100.0 8.642114261146095e-05 0.015505673709074557 0.019508507718875162 0.010319507081252927 0 0 0
1713 1 3100.0 1.110511249427828e-05 0.012905920482919787 0.014973323803051188 0.002595402020744077 0 0 0
1714 1 3100.0 8.144175100414615e-05 0.008858682885941061 0.012594686795410412 0.003428257668019613 0 0 0
1715 1 3100.0 2.2906757835938325e-05 0.01824209016877652 0.015878649917660484 0.007682966903378142 0 0 0
1716 1 3100.0 1.2410383333128554e-05 0.01221745194464367 0.008322987309848687 0.00744594227593383 0 0 0
1717 1 3100.0 0.00018230454243222768 0.011619904455673062 0.016446904965576183 0.0184522741107683 0 0 0
1718 1 3100.0 1.905393736954668e-05 0.007097253875457269 0.016582913928834583 0.01685099410393351 0 0 0
1719 1 3100.0 1.8466087506008108e-05 0.013417355741561847 0.01616940865698828 0.001705064584122356 0 0 0
1720 1 3100.0 0.00012649620144955891 0.013412821133306552 0.004565612032433035 0.012381965907472276 0 0 0
1721 1 3100.0 0.00016928338154710448 0.014179612229927105 0.01735757711692973 0.006200284526064908 0 0 0
1722 1 3100.0 4.8398071000500794e-05 0.003112577567771833 0.0025072987191329366 0.019862458399527282 0 0 0
1723 1 3100.0 4e-05 0.009353340477234368 0.0034178062827695792 0.0007876122111066665 0 0 0
1724 1 3100.0 5.558914178489334e-06 0.008130745369901311 0.016524054700052502 0.0008289132879104369 0 0 0
1725 1 3100.0 0.00010967230337642769 0.01086923255446631 0.0007777941143859537 0.010902421366672386 0 0 0
1726 1 3100.0 0.00014819713718315308 0.003066999911890366 0.018031806977293965 0.009521994727112423 0 0 0
1727 1 3100.0 8.147056446978795e-05 0.011804343246234753 0.00012161198358145128 0.004438337174480115 0 0 0
1728 1 3100.0 4.8114925509256534e-05 0.011172310961912117 0.011597880002219889 0.0012796174312012134 0 0 0
1729 1 3100.0 0.00027494353555304385 0.013201873884312825 0.00656472526128249 0.009756190108963293 0 0 0
1730 1 3100.0 1.2534547520974077e-05 0.013314935125398643 0.013269959678981988 0.010369791018960458 0 0 0
1731 1 3100.0 3e-05 0.013593575357020262 0.0008125166542153599 0.017598682147540453 0 0 0
1732 1 3100.0 7.60227650997797e-05 0.0050536034993270825 0.0062639229814490695 0.005848556316120301 0 0 0
1733 1 3100.0 0.00024777885055241874 0.005761525489750785 0.012575111521346485 0.01874296460537638 0 0 0
1734 1 3100.0 1.2598432608796784e-05 0.009982409882818085 0.013426561623680952 0.0028846012475725463 0 0 0
1735 1 3100.0 8.94776851935696e-06 0.013227716386388068 0.009146575207663156 0.01865992085484449 0 0 0
1736 1 3100.0 8.308975930207615e-06 0.00333151244525608 0.00048404823871206785 0.006416767141108171 0 0 0
1737 1 3100.0 0.00016620249979383688 0.006504755851609074 0.013652601244731164 0.006350010463882049 0 0 0
1738 1 3100.0 9.436189060587734e-05 0.009277150626401606 0.00661492773480591 0.0027676209966956008 0 0 0
1739 1 3100.0 9.6249329799594e-05 0.010068898244562747 0.015387561793142462 0.012956358445471806 0 0 0
1740 1 3100.0 0.00010296259381962557 0.009116082934263303 0.01721733562927297 0.0007749897336546287 0 0 0
1741 1 3100.0 0.0001205551781288405 0.016802579812317933 0.014445266046922938 0.006864019729156139 0 0 0
1742 1 3100.0 6.193176054689302e-06 0.01627049183981907 0.019424525082584628 0.019858003545921078 0 0 0
1743 1 3100.0 8.354309409623543e-06 0.011349291117480653 0.014045040054262296 0.008827368895177405 0 0 0
1744 1 3100.0 6.201147158962439e-05 0.012058497563197162 0.013205467710747711 0.0033523479429323493 0 0 0
1745 1 3100.0 7.191518429390948e-05 0.007122470277617718 0.006788115810854644 0.003378126713651091 0 0 0
1746 1 3100.0 0.00011448799590666192 0.0021519985577525967 0.015407874150317923 0.0009701485083804252 0 0 0
1747 1 3100.0 0.00010430768097949907 0.019033758244019407 0.016596014464017057 0.016859175726245408 0 0 0
1748 1 3100.0 7.892594865016692e-05 0.0015497045792646886 0.01906318733407301 0.008077567159625364 0 0 0
1749 1 3100.0 0.00017735822063149573 0.01750945881368356 0.008495429285698198 0.016648076580244017 0 0 0
1750 1 3100.0 0.00016067948053846343 0.010214411627652974 0.006237131620037914 0.0019277521594867494 0 0 0
1751 1 3100.0 1.1213152253590052e-05 0.003732451832516663 0.0037175617674314486 0.007371505153948949 0 0 0
1752 1 3100.0 4.573049346806142e-05 0.0034285646902961317 0.004644380985770206 0.004814837045574272 0 0 0
1753 1 3100.0 4.894003174325512e-05 0.0016964825348052904 0.013740978627100192 0.007550061741864323 0 0 0
1754 1 3100.0 5.814988826248581e-06 0.003814874822626128 0.0011943489765454678 0.009493959016119114 0 0 0
1755 1 3100.0 6.236825410069567e-05 0.002430779693995517 0.014422214687758185 0.011122763951744146 0 0 0
1756 1 3100.0 5.12709616212092e-06 0.013404209262670773 0.005532077097958 0.017900226007779203 0 0 0
1757 1 3100.0 5.154179002776752e-05 0.019632746312361626 0.01154342397042377 0.0003305597095842199 0 0 0
1758 1 3100.0 9.55475017067074e-05 0.014578036859104403 0.012542012568597705 0.0044434103685915905 0 0 0
1759 1 3100.0 8.586954999181097e-05 0.004421936006165823 0.019443219251882107 0.009304047729200283 0 0 0
1760 1 3100.0 6.249058384437937e-05 0.015737040626193827 0.010668565984978529 0.012099199115940202 0 0 0
1761 1 3100.0 1.208638996563448e-05 0.014994019977617744 0.00399783444562242 0.016710743278190807 0 0 0
1762 1 3100.0 9.198421198092731e-05 0.017381266235207356 0.004289930939628009 0.01020478410349043 0 0 0
1763 1 3100.0 0.00016249620201448976 0.0020168131156345537 0.003590569295958949 0.007151041848088084 0 0 0
1764 1 3100.0 7.692885117878737e-05 0.0037689762347476504 0.01966125470990215 0.01517534680615432 0 0 0
1765 1 3100.0 3e-05 0.015349965942448899 0.01856207079971734 0.01010483845136638 0 0 0
1766 1 3100.0 1.056366369544761e-05 0.016140724571312683 0.0012168875976954977 0.01870752339116342 0 0 0
1767 1 3100.0 9.220467544327094e-05 0.0012003585712885376 0.006621548433144138 0.005452016636562719 0 0 0
1768 1 3100.0 7.98111518901023e-05 0.0009220671665849352 0.010871110818032093 0.009705191170127069 0 0 0
1769 1 3100.0 0.00016350599413039664 0.013475752458174287 0.006651862503407837 0.01862819827822477 0 0 0
1770 1 3100.0 6.412247767658844e-05 0.01313357042916353 0.01573495103704414 0.0015514035835206667 0 0 0
1771 1 3100.0 0.00020396097695438205 0.012260211711944944 0.013383746745383129 0.003421425484564991 0 0 0
1772 1 3100.0 2.2845122521448162e-05 0.0007025558670596347 0.010609392455337726 0.010801365034175663 0 0 0
1773 1 3100.0 5.272426019522828e-06 0.014358277177942453 0.004836181878001296 0.013116220515877805 0 0 0
1774 1 3100.0 8.839844399611089e-05 0.01416555599933486 0.0013795011787471583 0.015023717339338851 0 0 0
1775 1 3100.0 0.0001146997216082647 0.013577684427101127 0.010538177824683585 0.012499828241146397 0 0 0
1776 1 3100.0 2.090987179581597e-05 0.016123193128170565 0.014087105773992659 0.007677712616130246 0 0 0
1777 1 3100.0 9.868127929060547e-05 0.016773920413948096 0.016808601077742846 0.008469426315943445 0 0 0
1778 1 3100.0 0.00012904202129160376 0.005303341822839615 0.019122978414284734 0.014857985635781647 0 0 0
1779 1 3100.0 1.4740352329846745e-05 0.0025087274298414885 0.0030816739798347668 0.012443453361451617 0 0 0
1780 1 3100.0 6.189283227098231e-05 0.009140331435175612 0.002657852679984926 0.006672079670774077 0 0 0
1781 1 3100.0 7.822169765389676e-06 0.019428938002052577 0.0146756654249283 0.017400797377952804 0 0 0
1782 1 3100.0 7.5623236317566345e-06 0.00020743443421713414 0.018910961768295473 0.015528032837651579 0 0 0
1783 1 3100.0 5.0785838770605105e-05 0.005618665611756854 0.014855144061551846 0.016872240184199236 0 0 0
1784 1 3100.0 2.765114069036566e-05 0.011466789564893559 0.018781248475498898 0.016312787475187628 0 0 0
1785 1 3100.0 0.00013595883085795678 0.011014310217229678 0.016541547155871486 0.0026934300206820838 0 0 0
1786 1 3100.0 1.2810012625288326e-05 0.009492416807578485 0.005635302626717459 0.006326532496345973 0 0 0
1787 1 3100.0 8.10325121052207e-05 0.00274112632950434 0.0019488448557613118 0.002553486074542988 0 0 0
1788 1 3100.0 1.253075925754396e-05 0.01646282073249378 0.015283990587230581 0.003904520822481558 0 0 0
1789 1 3100.0 2.1231254280916226e-05 0.005114789893464933 0.0048911288124572445 0.013756282377017462 0 0 0
1790 1 3100.0 4.354414879723703e-05 0.007755255827539019 0.007899923207060615 0.014310284361190138 0 0 0
1791 1 3100.0 0.0001015163257325055 0.00022994699018500243 0.004317732091086954 0.013117764509167027 0 0 0
1792 1 3100.0 1.4773384000137375e-05 0.0009820281529277595 0.019768836261819505 0.005421640227054653 0 0 0
1793 1 3100.0 6.931165315659691e-05 0.0024084195470621514 0.0032443692582750333 0.01370583147089803 0 0 0
1794 1 3100.0 5.916209430419486e-05 0.0026038708641404583 0.0007208315104534695 0.014667033704881524 0 0 0
1795 1 3100.0 2.1521123134158336e-05 0.010020038330080295 0.014857168296019201 0.01941587413338371 0 0 0
1796 1 3100.0 9.614979915574241e-06 0.00861846149249949 0.0014424506708850208 0.01562464029790154 0 0 0
1797 1 3100.0 0.00011221637703692232 0.008071887991822416 0.01884922817205614 0.019279585134610325 0 0 0
1798 1 3100.0 8.02327872568372e-05 0.006593150003358402 0.0007253652858354399 0.0041497527140639265 0 0 0
1799 1 3100.0 0.0001757108260009449 0.013963765921488819 0.013910175645756142 0.016798283399567182 0 0 0
1800 1 3100.0 9.084005746094241e-05 0.0038972622694875255 0.004518952731487248 0.011110125844044267 0 0 0
1801 1 3100.0 1.007909179496228e-05 0.012101437156720733 0.005465133834615683 0.0193117954831834 0 0 0
1802 1 3100.0 0.00011267196789903186 0.0061526634211466116 0.0064200887871506745 0.002417772664184684 0 0 0
1803 1 3100.0 0.00011547614178830594 0.006187844611656275 0.012786342846628294 0.012120883086431547 0 0 0
1804 1 3100.0 3e-05 0.004254446503274111 0.0082311067955957 0.0006175935962995658 0 0 0
1805 1 3100.0 7.171634739558353e-06 0.003340638357432349 0.015795389005719578 0.018490949303596245 0 0 0
1806 1 3100.0 4e-05 0.005538944051363613 0.005756424682485829 0.005929361347650691 0 0 0
1807 1 3100.0 3e-05 0.012433033137520932 0.0015941810303844303 0.013270379628054742 0 0 0
1808 1 3100.0 9.791774771239565e-05 0.007769707312806145 0.011179907952706403 0.015569389248663348 0 0 0
1809 1 3100.0 5.679484478456875e-05 0.003101893217391051 0.018640919443887308 0.0016360178752500116 0 0 0
1810 1 3100.0 9.396138765391514e-05 0.012127456666190911 0.007032902045232323 0.013695517480547119 0 0 0
1811 1 3100.0 0.0001377240540348351 0.0036786421425437986 0.013468169083788104 0.012082187770110758 0 0 0
1812 1 3100.0 7.451774076517196e-05 0.0013470690567835778 0.007156983101111203 0.012635943183171534 0 0 0
1813 1 3100.0 6.019242354487415e-05 0.01542280313338676 0.0011635961572690366 0.013298193269531102 0 0 0
1814 1 3100.0 9.497467350219952e-05 0.0043952199151400225 0.0025042174675295906 0.013071986409227725 0 0 0
1815 1 3100.0 0.00013093817678488736 0.0023713125359270653 0.0009125510781845445 0.019209022460836153 0 0 0
1816 1 3100.0 1.8287078720165785e-05 0.005160103429912075 0.0019891152987751323 0.010928692333097479 0 0 0
1817 1 3100.0 1.8698296951580248e-05 0.01202152447758774 0.012308978179606776 0.015317372393688551 0 0 0
1818 1 3100.0 6.690804223416485e-06 0.0067026286212344185 0.0153540323035319 0.0010377798794496316 0 0 0
1819 1 3100.0 7.77348177135866e-05 0.009448054542420902 0.018904636045953018 0.01662201517946458 0 0 0
1820 1 3100.0 3e-05 0.0006151473172266191 0.007506963603349503 0.014495858886636332 0 0 0
1821 1 3100.0 4.874634016273125e-06 0.014214900792125045 0.0053766148687607205 0.008823618812682635 0 0 0
1822 1 3100.0 1.7796703626231333e-05 0.0069932760166067035 0.004304895578839115 0.01304390884628821 0 0 0
1823 1 3100.0 0.00014832287025706234 0.006460249075570155 0.0013657832426352695 0.0008030586922632252 0 0 0
1824 1 3100.0 1.6377261879046124e-05 0.010715574579839885 0.0023574469834289694 0.009206656772259394 0 0 0
1825 1 3100.0 2.5e-06 0.0032652322070743415 0.005132523013303327 0.019894910512770713 0 0 0
1826 1 3100.0 0.00014731221245486214 0.0031624651317147577 0.004159243175893162 0.007855414477318409 0 0 0
1827 1 3100.0 1.2311800252188432e-05 0.007967890453133536 0.019655184063750893 0.0025365489702298713 0 0 0
1828 1 3100.0 4e-05 0.008724871572454234 0.007046097425329791 0.013938569215744132 0 0 0
1829 1 3100.0 7.582328787686927e-05 0.014681815523151613 0.005116058806994881 0.010803889625944668 0 0 0
1830 1 3100.0 2.2636675505933306e-05 0.003184552213332017 0.013862121105369404 0.007020324166881474 0 0 0
1831 1 3100.0 0.0001187462230631677 0.010330651055302724 0.019303216408869322 0.01027167743324324 0 0 0
1832 1 3100.0 6.335296351970094e-05 0.00761557474095328 0.011279235557508059 0.019568036567675428 0 0 0
1833 1 3100.0 0.0001649399019748899 0.005415130091400939 0.018392961065167576 0.009391993954800117 0 0 0
1834 1 3100.0 5.061747503063595e-05 0.004520830664004054 0.017048307351652334 0.0018485669932428949 0 0 0
1835 1 3100.0 8.734003148084249e-06 0.014714799375244855 0.008110838547734351 0.005306572121372869 0 0 0
1836 1 3100.0 9.5939364114978e-05 0.008597492028329833 0.0009274661976511507 0.01496979570076483 0 0 0
1837 1 3100.0 8.083850060950444e-05 0.011087024336479581 0.01874046481779886 0.009459094721726864 0 0 0
1838 1 3100.0 7.901674098437578e-05 0.0017013389475745472 0.0031037453716139833 0.018797840927894344 0 0 0
1839 1 3100.0 4e-05 0.012231951035414294 0.008309982954739238 0.015680869897226495 0 0 0
1840 1 3100.0 5.094088953288337e-05 0.005403802045263842 0.0018948837066931129 0.012324367084116262 0 0 0
1841 1 3100.0 4.855194405004081e-06 0.006270494068662164 0.00305325958980537 0.01859225950243158 0 0 0
1842 1 3100.0 2.4246436899225017e-05 0.019171227502620618 0.011618175596637746 0.01679402361243071 0 0 0
1843 1 3100.0 0.0001062911997507338 0.005832134399213893 0.016540952086870224 0.005773250277519727 0 0 0
1844 1 3100.0 0.00017034340608747072 0.015638761501573045 0.006228168164967149 0.015404474185108406 0 0 0
1845 1 3100.0 7.219780020817856e-05 0.00046785289479222734 0.005407100549688139 0.01898532561998813 0 0 0
1846 1 3100.0 5.844093777059216e-05 0.010064160309696263 0.007060354221514803 0.008635995781960067 0 0 0
1847 1 3100.0 9.85839582746224e-05 0.009746435551464153 0.017353099594648477 0.006697961449153665 0 0 0
1848 1 3100.0 1.4721367032621108e-05 0.005921350746953919 0.000574706469589323 0.005289840680371106 0 0 0
1849 1 3100.0 2.4817319692902972e-05 0.01896523202940798 0.013284489682989498 0.011870563414967084 0 0 0
1850 1 3100.0 9.533079399365633e-06 0.0010957612735238954 0.013907632931930073 0.005190347788424354 0 0 0
1851 1 3100.0 0.00014438343694227277 0.012798204427403382 0.01744555153655632 0.008307936218948233 0 0 0
1852 1 3100.0 7.49612654351278e-05 0.018989512765303477 0.010289238311492532 0.009077293906071716 0 0 0
1853 1 3100.0 0.00012883493104250173 0.013618848894631112 0.01653640312330246 0.0020893282218478193 0 0 0
1854 1 3100.0 0.00010826065181823018 0.018411570875367725 0.016312279157297088 0.01022645156044539 0 0 0
1855 1 3100.0 1.1270199204661422e-05 0.018212527610593048 0.01115071811366556 0.0019747413736092667 0 0 0
1856 1 3100.0 7.629323416837443e-05 0.0180645563491279 0.005574673248253408 0.006482983872428118 0 0 0
1857 1 3100.0 0.00010284641278896914 0.008543066860973137 0.006433866080317743 0.0007220279676991295 0 0 0
1858 1 3100.0 8.362519273592287e-05 0.013992734219305091 0.0020786716850919257 0.005706162624200304 0 0 0
1859 1 3100.0 7.145751149967976e-06 0.014347105814937122 0.012025084978501029 0.009201441783957704 0 0 0
1860 1 3100.0 6.12233523713386e-05 0.018724039275854226 0.01855764086017318 0.009113434727634113 0 0 0
1861 1 3100.0 0.00013126781504088435 0.012520536740114918 0.012066883723579992 0.011504850827228696 0 0 0
1862 1 3100.0 1.252969249780115e-05 0.018939258677902315 0.010289954692587542 0.0006949952116950429 0 0 0
1863 1 3100.0 8.741876382774978e-06 0.00585431447972577 0.00994434692733659 0.013784139868084246 0 0 0
1864 1 3100.0 2.2100072133876175e-05 0.0011563943562512018 0.010144659314453014 0.003828359713402616 0 0 0
1865 1 3100.0 1.1100193062207858e-05 0.018468985210212795 0.014015148368200182 0.013051416708773439 0 0 0
1866 1 3100.0 8.074232176832469e-05 0.01736647607332037 0.0006500843679876186 0.007810816313602756 0 0 0
1867 1 3100.0 0.00019864832155015174 0.016626925914652157 0.0009891931848960687 0.0033146429689875573 0 0 0
1868 1 3100.0 1.4019086962240591e-05 0.019629587900572704 0.005574089239375816 0.00388004142036109 0 0 0
1869 1 3100.0 1.5444187573592177e-05 0.01940450374020818 0.019249572506289347 0.011347793980858207 0 0 0
1870 1 3100.0 5.8411664837131644e-05 0.0047404183511340105 0.002483077015602026 0.01180698074611347 0 0 0
1871 1 3100.0 3.9312040652019585e-06 0.006199273063624668 0.002478547267998249 0.005284816721205434 0 0 0
1872 1 3100.0 1.0606478870004322e-05 0.009548318794004947 0.009456784345914071 0.018340993148871842 0 0 0
1873 1 3100.0 2.895193156411361e-06 0.003394880646932442 0.005749537836138926 0.012117078096397917 0 0 0
1874 1 3100.0 0.000207254730843688 0.019674659955649043 0.001962870941610326 0.0036870139448336374 0 0 0
1875 1 3100.0 1.8079693982841633e-05 0.0031039082962010436 0.0020325960933518902 0.017370784037885098 0 0 0
1876 1 3100.0 0.00023703560144104342 0.0038140720348424266 0.018708836010185546 0.004803387292115941 0 0 0
1877 1 3100.0 7.138558717605624e-05 0.008630490733933427 0.012836840818690375 0.015235006998436074 0 0 0
1878 1 3100.0 6.606684776628095e-05 0.003617619271475213 0.008495505638758437 0.0028417937350995732 0 0 0
1879 1 3100.0 9.201843905633614e-06 0.01742204046379836 0.000522566700760868 0.005030956041937694 0 0 0
1880 1 3100.0 9.51864920168446e-05 0.005202932397107079 0.013520584205143498 0.003480492194897671 0 0 0
1881 1 3100.0 8.486901122660292e-06 0.016722401956459843 0.012177187981993402 0.004441564385338287 0 0 0
1882 1 3100.0 0.0001159277763272893 0.0021268338994346173 0.01790168687720191 0.01060693148138885 0 0 0
1883 1 3100.0 0.00010282636871195586 0.0026155859475849625 0.009357938433354787 0.010477769322965205 0 0 0
1884 1 3100.0 4.950545410505296e-05 0.016280259683511218 0.008933024839272555 0.014182899788130851 0 0 0
1885 1 3100.0 0.00010266734475793115 0.011588622214367818 0.0005857591359830892 0.013010713775077294 0 0 0
1886 1 3100.0 8.773628244210723e-05 0.010846974424808878 0.0033148672760562807 0.010782047384686824 0 0 0
1887 1 3100.0 2.041645402565654e-05 0.009935743175884068 0.00028426082612970506 0.01085245423379497 0 0 0
1888 1 3100.0 8.870351012336584e-05 0.014541266802640744 0.01357588141727565 0.006563436486545699 0 0 0
1889 1 3100.0 7.1830033154195345e-06 0.014055335740959036 0.002121998482696997 0.0012806239423716517 0 0 0
1890 1 3100.0 5.653728312823419e-05 0.014814958271497505 0.009477888049261779 0.01982274110148251 0 0 0
1891 1 3100.0 0.00014754688291018593 0.002747806427687294 0.008432041588641028 0.014003992030645198 0 0 0
1892 1 3100.0 3.959435247330575e-06 0.004580368231672725 0.008215508556030687 0.010068689067003894 0 0 0
1893 1 3100.0 0.00011715834812711177 0.016356775847340826 0.017324721260361886 0.008773666946070147 0 0 0
1894 1 3100.0 6.368516542960868e-06 0.008854274430647761 0.005865845231940428 0.013722306050107146 0 0 0
1895 1 3100.0 6.675293593632722e-05 0.004906906363061594 0.005727675887065521 0.015506663987514855 0 0 0
1896 1 3100.0 5.288898219831644e-05 0.017789304393143066 0.00026118802799258436 0.008564389297541154 0 0 0
1897 1 3100.0 6.684159942952462e-05 0.0055169649322956435 0.017301884665428872 0.019048289617077652 0 0 0
1898 1 3100.0 0.00015414231693772182 0.005091811688123638 0.015801207980311018 0.009334389246720354 0 0 0
1899 1 3100.0 1.974467356654856e-05 0.01789680144715951 0.009337200364007644 0.016090433546746292 0 0 0
1900 1 3100.0 8.217866031679969e-06 0.01812929801042325 0.019337565282882743 0.01620649367714679 0 0 0
1901 1 3100.0 6.940800268275552e-05 0.008196959000352774 0.010572634559689128 0.01879429533479643 0 0 0
1902 1 3100.0 4.998375322694533e-05 0.00100959259191289 0.01631599335659411 0.008017294145012288 0 0 0
1903 1 3100.0 1.8587261010942958e-05 0.008865746764715481 0.003067645232868118 0.008735708896872377 0 0 0
1904 1 3100.0 4.0058393883937295e-05 0.008704587131304823 0.0006489099178953327 0.004757546516154918 0 0 0
1905 1 3100.0 5.3010085112715055e-05 0.010837734222214861 0.0031469028855020194 0.004154103441279994 0 0 0
1906 1 3100.0 0.00011176125923078586 0.015672114537347865 0.007380431529037007 0.001580206321398725 0 0 0
1907 1 3100.0 7.892574814346608e-06 0.004944155006802917 0.01308264759638551 0.015770095969736015 0 0 0
1908 1 3100.0 3e-05 0.010102653398511229 0.002978542901505119 0.018552793071513404 0 0 0
1909 1 3100.0 7.156086120579331e-05 0.018637803542236295 0.015992235791370962 0.0009749018480231187 0 0 0
1910 1 3100.0 6.9680874662863e-05 0.015050599743703302 0.01221813637467346 0.0011778775924489648 0 0 0
1911 1 3100.0 2.119899901529779e-05 0.003964867664086878 0.004020064691846313 0.006495981229276625 0 0 0
1912 1 3100.0 8.884619042519328e-05 0.014723234091753168 0.007170371130588897 0.017532659346351235 0 0 0
1913 1 3100.0 5.7909394834362387e-05 0.015652179990547816 0.0046606985739741525 0.003091996741636594 0 0 0
1914 1 3100.0 5.951547386786874e-05 0.008327460195701228 0.005682012682337806 0.00299442270030783 0 0 0
1915 1 3100.0 1.4766516609468102e-05 0.008835298311952117 0.008997143766906367 0.0059914221664483435 0 0 0
1916 1 3100.0 4.162482539631675e-05 0.01777614335838196 0.0089004227839446 0.015531467624921089 0 0 0
1917 1 3100.0 6.499233042311532e-05 0.0006402193757045971 0.010325633533990998 0.0058679017746330305 0 0 0
1918 1 3100.0 3e-05 0.008309428837426245 0.0008788738798398098 0.01149490908614896 0 0 0
1919 1 3100.0 4.872897687269149e-06 0.007658025478843889 0.014276198641451998 0.0022203674499824953 0 0 0
1920 1 3100.0 1.5250931278478017e-05 0.015612994213908181 0.009450198043566322 0.016937935652871307 0 0 0
1921 1 3100.0 8.524598499912541e-05 0.0041068053906752056 0.011264298451339501 0.01291026322721417 0 0 0
1922 1 3100.0 8.819003486213803e-05 0.009394178222082607 0.00037917943143646045 0.005587262224544994 0 0 0
1923 1 3100.0 8.066872790305017e-06 0.00569165766383884 0.008931954657983037 0.012397709678488154 0 0 0
1924 1 3100.0 5.686557694574575e-05 0.0061093670346761605 0.012607086728609189 0.0015695090676871868 0 0 0
1925 1 3100.0 0.0001429619906993854 0.019781755555815204 0.018083747133537456 0.012639718897808284 0 0 0
1926 1 3100.0 1.042070046841663e-05 0.01944780865775415 0.013223458256787292 0.009070018099441636 0 0 0
1927 1 3100.0 1.5770201954103546e-05 0.007343939647615018 0.012725813650756434 0.017851732409624944 0 0 0
1928 1 3100.0 8.68508301670794e-05 0.016976612250379875 0.0075589596461441465 0.006755770459938994 0 0 0
1929 1 3100.0 7.492106586304818e-05 0.0005807368555098417 0.006604690495624303 0.009185826617751339 0 0 0
1930 1 3100.0 8.602820477711503e-05 0.017203147230379953 0.014316535951972666 0.0015888297515810835 0 0 0
1931 1 3100.0 0.00013102183390078975 0.00432506941457184 0.0008504613404940567 0.0171047418131795 0 0 0
1932 1 3100.0 0.0001249359519998603 0.012826265354057252 0.01293184007931417 0.0030114860335918496 0 0 0
1933 1 3100.0 0.0001612904235095246 0.00983798971252075 0.01867670858822723 0.0015678327661881378 0 0 0
1934 1 3100.0 8.768256677238599e-05 0.009991772122370115 0.012431497113031115 0.008762063011046563 0 0 0
1935 1 3100.0 3e-05 0.015964719315399414 0.010547330157176257 0.012970380183458727 0 0 0
1936 1 3100.0 9.712984057587107e-05 0.004288809009632785 0.011042161308133 0.014359076418820196 0 0 0
1937 1 3100.0 0.00014142068007597916 0.0009680026216169195 0.010588825874262797 0.0017818464344659312 0 0 0
1938 1 3100.0 0.00010476167036639097 0.010122451739638652 0.010628718728090004 0.0022639292877883613 0 0 0
1939 1 3100.0 5.4005599691643046e-05 0.005716879660118201 0.0036786610387077876 0.01310954779364255 0 0 0
1940 1 3100.0 0.00016190619027944288 0.017042196913436874 0.0014128450149429848 0.006696052318061861 0 0 0
1941 1 3100.0 8.54146691305497e-06 0.00927919536382809 0.0012269758679688744 0.015513847844141879 0 0 0
1942 1 3100.0 2.3042803418059085e-05 0.002696600166202327 3.887918588795836e-05 0.012320497971241039 0 0 0
1943 1 3100.0 1.7017962949486002e-05 0.014385632690235788 0.003337277261395871 0.016541225165601327 0 0 0
1944 1 3100.0 6.550373214720643e-05 0.005214210742714272 0.012055916432805916 0.015325974603447494 0 0 0
1945 1 3100.0 7.980510679395276e-05 0.016342921916597933 0.00012821459224637686 0.010711134728041272 0 0 0
1946 1 3100.0 7.375267044731707e-05 0.012458245680834088 0.00034256574039707397 0.019386828832111236 0 0 0
1947 1 3100.0 8.96442722239174e-05 0.012847934895435844 0.006277555722200562 0.006673288264209887 0 0 0
1948 1 3100.0 7.326241459257651e-05 0.0006647515557158565 0.010308074477288697 0.01099016130776656 0 0 0
1949 1 3100.0 1.382740550929019e-05 0.015255239042926753 0.006167751223712997 0.013401313797933127 0 0 0
1950 1 3100.0 1.4262194315154548e-05 0.005832112912490458 0.019854003848428142 0.015051323835224588 0 0 0
1951 1 3100.0 0.00024898386545376067 0.0024404367298421635 0.0003654504885593322 0.0031899104861952236 0 0 0
1952 1 3100.0 1.5180078863650736e-05 0.016338669709967897 0.005211164028584244 0.018883114755738124 0 0 0
1953 1 3100.0 1.264166530092373e-05 0.00025619922892078427 0.015275117332050133 0.0015471245550673415 0 0 0
1954 1 3100.0 8.678752624940169e-05 0.0003217544967161035 0.014996775195195971 0.0024662828197001157 0 0 0
1955 1 3100.0 0.0001228134722990836 0.014247387969070274 0.013946386610220086 0.003568272848266095 0 0 0
1956 1 3100.0 0.00010418606274079704 0.003155037719868835 0.01441499236212241 0.019073441113430227 0 0 0
1957 1 3100.0 0.0001499315359102344 0.00831691987240573 0.002915607816383237 0.004442538937460956 0 0 0
1958 1 3100.0 5.1834728020137406e-05 0.006919028862889829 0.0170751880913948 0.01954865506658288 0 0 0
1959 1 3100.0 0.0001304470691733669 0.011729323101922698 0.0018236029252105572 0.016945213103731125 0 0 0
1960 1 3100.0 2.55079475762216e-05 0.0015027178708175218 0.015297064923525137 0.014116509037671983 0 0 0
1961 1 3100.0 1.232524974055318e-05 0.004422249814268328 0.011793424729251623 0.013658292528846832 0 0 0
1962 1 3100.0 9.627540311779242e-05 0.013209315056823396 0.0031765714316219266 0.0057228495795392425 0 0 0
1963 1 3100.0 8.465275100421212e-05 0.0018410744866401735 0.007999581102188303 0.003740781041634063 0 0 0
1964 1 3100.0 9.139038710273988e-05 0.018323633672498934 0.01826390056598265 0.0001824612610848793 0 0 0
1965 1 3100.0 5.5761607082763654e-05 0.01134906406378838 0.01818978917790242 0.005482001673878818 0 0 0
1966 1 3100.0 0.00014060143251378725 0.0032938824895211633 0.010799379575149533 0.018900278469808112 0 0 0
1967 1 3100.0 7.489254914410683e-05 0.010280319100004801 0.010351333273059095 0.005183405356259234 0 0 0
1968 1 3100.0 1.228395554320281e-05 0.006830685233945181 0.004151715275165296 0.01781146777470262 0 0 0
1969 1 3100.0 0.00011352316627005539 0.01497885127240944 0.0015192422249868092 0.00798781111536305 0 0 0
1970 1 3100.0 1.2028055048020649e-05 0.012879163702295433 0.017172538727823945 0.011589829653267054 0 0 0
1971 1 3100.0 2.5247852562445775e-05 0.006045266088713178 0.004441334930649204 0.0018244180792698688 0 0 0
1972 1 3100.0 9.462837331992703e-05 0.015210426938526728 0.014452875991356567 0.008074954063572204 0 0 0
1973 1 3100.0 3e-05 0.009027930244800695 0.014063787218402912 0.008110140905988706 0 0 0
1974 1 3100.0 9.576684126297706e-05 0.0060543810425364745 0.0008920715682487592 0.015696230802159032 0 0 0
1975 1 3100.0 7.315351676464034e-05 0.008028400750091532 0.003671870365424716 0.01796340748629493 0 0 0
1976 1 3100.0 7.418698976033276e-05 0.01849476157683796 0.008984940035951954 0.008386856932052676 0 0 0
1977 1 3100.0 3e-05 0.01335512553354668 0.018298766228902745 0.009600712468530661 0 0 0
1978 1 3100.0 9.879044209039308e-05 0.002734053155977438 0.005869170469794526 0.0004942791033622268 0 0 0
1979 1 3100.0 4e-05 0.002705036506936835 0.00836997906020857 0.006639763545926807 0 0 0
1980 1 3100.0 1.8275172355420115e-05 0.019676081314400063 0.010100053611962805 0.018862916263319072 0 0 0
1981 1 3100.0 8.970558608930331e-06 0.012584709503868625 0.01247611753090876 0.0011784261101473361 0 0 0
1982 1 3100.0 5.854436241484568e-05 0.004610231624028953 0.013527758029899185 0.016770568288929588 0 0 0
1983 1 3100.0 0.0001494956207787645 0.004276468164943336 0.017296833766981944 0.009732938857601405 0 0 0
1984 1 3100.0 5.713355531844003e-06 0.0024212998043195632 0.014586127146954739 0.010001357065366095 0 0 0
1985 1 3100.0 0.0002099798621070433 0.0011893135483789295 0.002518827520311343 0.0014730378702596802 0 0 0
1986 1 3100.0 4.912097185033989e-05 0.017478622801299425 0.0035833830932715982 0.014138712081047918 0 0 0
1987 1 3100.0 8.88874947475075e-06 0.010970036865135938 0.0011500295079532805 0.01404584827457285 0 0 0
1988 1 3100.0 4e-05 0.016902020994244527 0.01788713054890571 0.007479820590278122 0 0 0
1989 1 3100.0 0.00013300461687714877 0.004583416517709173 0.01677776263816423 0.01623066949442342 0 0 0
1990 1 3100.0 2.254632987842224e-05 0.014367514145583684 0.001816681572316957 0.00823841336865151 0 0 0
1991 1 3100.0 6.69693234084734e-05 0.007033227282028219 0.010098799371810498 0.010579811329522293 0 0 0
1992 1 3100.0 5.1911678230843346e-05 0.0015744956939844033 0.00998462484711416 0.006131872518039251 0 0 0
1993 1 3100.0 1.0518996403024737e-05 0.007674095751115319 0.004557360992978577 0.0002059104501214771 0 0 0
1994 1 3100.0 7.61476225117715e-05 0.017128337978250835 0.011481743991909224 0.01213367064096779 0 0 0
1995 1 3100.0 0.00010156402981645271 0.011408193032803366 0.009595949906935984 0.003759610077254819 0 0 0
1996 1 3100.0 0.00011773777586601899 0.0011595811784465414 0.01869851890334354 0.01893207140533453 0 0 0
1997 1 3100.0 0.00022271172456966292 0.013694313886018715 0.01344749897522211 0.007637821629766122 0 0 0
1998 1 3100.0 9.019340711877407e-05 0.00672039571431026 0.006950760611215148 0.002288376861253723 0 0 0
1999 1 3100.0 1.3390076200021469e-05 0.0033902333173835056 0.017912696350897588 0.007296052995444406 0 0 0
2000 1 3100.0 9.359276900701338e-05 0.0028159548462494194 0.01489731349642236 0.002399191190139812 0 0 0
2001 1 3100.0 9.075845022264376e-06 0.0165800863098037 0.012240037953745828 0.013020433279486354 0 0 0
2002 1 3100.0 8.582100534666672e-05 0.011173353565174937 0.015824703957593562 0.01483464450133388 0 0 0
2003 1 3100.0 0.00014038941375108825 0.011121771266055838 0.0016942480557637651 0.00776887818999249 0 0 0
2004 1 3100.0 0.0001136468132618752 0.013458664542552193 0.013260164187049438 0.0016531317022456624 0 0 0
2005 1 3100.0 4.667680682943126e-05 0.010390680610635368 0.01674858649227912 0.012375606799450168 0 0 0
2006 1 3100.0 4.640619338573012e-05 0.0018899458033469058 0.000776978346888106 0.0053381278484452305 0 0 0
2007 1 3100.0 5.916436333640899e-05 0.01985885243201045 0.009308533215976305 0.006588492777454324 0 0 0
2008 1 3100.0 8.99023000971371e-05 0.0016885214565575803 0.002774762510904942 0.0033431089231546066 0 0 0
2009 1 3100.0 1.873954940028426e-05 0.016019166278019425 0.012182906230431747 0.012304584504718233 0 0 0
2010 1 3100.0 1.1077422126870304e-05 0.00820634485958084 0.011280980939315333 0.0018884902674212191 0 0 0
2011 1 3100.0 7.478312784466662e-05 0.016966646804943905 0.016315762014484855 0.011435440083229529 0 0 0
2012 1 3100.0 0.00013156273078495368 0.0028320368356837262 0.010146799308299455 0.004875139292087985 0 0 0
2013 1 3100.0 8.538227051776133e-05 0.01835638863027459 0.0026065984259469187 0.01928916170397636 0 0 0
2014 1 3100.0 9.139344726440322e-05 0.014194861148530977 0.009107678398379369 0.009330919783336151 0 0 0
2015 1 3100.0 4e-05 0.00932600857047299 0.0024696399271567876 0.011116327538445684 0 0 0
2016 1 3100.0 7.008338288793284e-05 0.0027873274283716615 0.017958803166950567 0.009420009438089535 0 0 0
2017 1 3100.0 9.199112429761684e-06 0.01607373166102402 0.009476247372253133 0.011815687458242663 0 0 0
2018 1 3100.0 1.683644580127185e-05 0.013699884514585923 0.0020593471556344736 0.010584622796109052 0 0 0
2019 1 3100.0 3.578645416873734e-06 0.007223247425368241 0.0032245376659256826 0.01410045512623947 0 0 0
2020 1 3100.0 1.0041875127792121e-05 0.019721022262143346 0.0023781844314074464 0.013402102432422472 0 0 0
2021 1 3100.0 1.3993503145171802e-05 0.015593447696665238 0.009919390938849955 0.009841316356823851 0 0 0
2022 1 3100.0 8.798153696173149e-05 0.010363198563319402 0.01710450163587838 0.0036387312631295963 0 0 0
2023 1 3100.0 0.00011463634801160808 0.017358855845594552 0.016130276206104844 0.008708443227273417 0 0 0
2024 1 3100.0 6.270066385880293e-06 0.004654663699088142 0.007360442047812218 0.015248046152441278 0 0 0
2025 1 3100.0 7.363964261557218e-05 0.007794333051747017 0.015036072317430826 0.016137298598077162 0 0 0
2026 1 3100.0 1.4040051861645996e-05 0.0073348313954486296 0.0121631967310389 0.0022809235339968973 0 0 0
2027 1 3100.0 6.054188877224315e-06 0.013918832380162794 0.014432560283758259 0.017932264593021763 0 0 0
2028 1 3100.0 7.83978907811808e-05 0.010378991567298768 0.01945053372610421 0.007059949037416166 0 0 0
2029 1 3100.0 9.36042357609394e-05 0.014658465998729548 0.011852052794193579 0.00018405523913513135 0 0 0
2030 1 3100.0 1.2083930345094133e-05 0.013448093813854032 0.0069660271402623465 0.006483212180953006 0 0 0
2031 1 3100.0 8.324198115847817e-05 0.005706122784755876 0.01604189805640223 0.0013735523751928623 0 0 0
2032 1 3100.0 7.817673682248384e-05 0.013186059670964027 0.009566756983495654 0.0072234971269292455 0 0 0
2033 1 3100.0 4.3633596941444565e-06 0.01116941014802723 0.008684997916922463 0.017167737413933647 0 0 0
2034 1 3100.0 8.906680266139067e-05 0.008346423889230794 0.01802159813908356 0.000774310321149026 0 0 0
2035 1 3100.0 2.6295697061713653e-05 0.013083248461841916 0.011758183453618452 0.000805138418451413 0 0 0
2036 1 3100.0 9.99868296094738e-05 0.01335031708672846 0.01712864913860507 0.012575173774677257 0 0 0
2037 1 3100.0 9.347266230046644e-05 0.008435539510035964 0.002659763954948467 0.013457918439072705 0 0 0
2038 1 3100.0 7.854980975278022e-06 0.0019284943147941183 0.015699640807846936 0.008884961084795702 0 0 0
2039 2 7870.0 0.0003 0.017344827533616942 0.00532043016127429 0.017673467884698535 0 0 0
2040 1 3100.0 8.898712697443203e-06 0.013640270226997733 0.0073090532003109105 0.010636959638371501 0 0 0
2041 1 3100.0 0.00010710742326774142 0.014694369635688057 0.0010525763046284515 0.009410639582568298 0 0 0
2042 1 3100.0 9.448574273168341e-05 0.009745395310119373 0.005712827415824598 0.009629143845544894 0 0 0
2043 1 3100.0 3.673491238032084e-06 0.0020440213784123753 0.0018850617646958892 0.01389055588250434 0 0 0
2044 1 3100.0 5.0394081467236744e-05 0.01573088043522965 0.01158539873261409 0.003611584630729893 0 0 0
2045 1 3100.0 5.674765132491267e-05 0.004878564152361323 0.0019330230604257574 0.012549837317560906 0 0 0
2046 1 3100.0 0.00010558348952055291 0.003089439657008657 0.004618243168305551 0.0019110537531250682 0 0 0
2047 1 3100.0 5.281956773740689e-05 0.005984004441377644 0.012780642016637344 0.01415665981760229 0 0 0
2048 1 3100.0 5.413203086732439e-05 0.01605888009132725 0.0079291404252782 0.018191224233484637 0 0 0
2049 1 3100.0 1.6836158984160864e-05 0.01671256055427741 0.008754290241278053 0.006820173964067223 0 0 0
2050 1 3100.0 2.907442384381052e-05 0.0017322327174362296 0.004130024665016962 0.012909996718375482 0 0 0
2051 1 3100.0 9.835821379315082e-06 0.010334801300570282 0.004520354030637065 0.00071724153606735 0 0 0
2052 1 3100.0 4e-05 0.019826034559026394 0.013927652521202424 0.01307790965778727 0 0 0
2053 1 3100.0 8.470777567225471e-05 0.005439881494531354 0.015840798933442993 0.011908962654112563 0 0 0
2054 1 3100.0 0.00014173302685542788 0.009394737413307151 0.012652357230831482 0.008927709024513593 0 0 0
2055 1 3100.0 6.23165612363539e-05 0.006974876571823726 0.007006143319167284 0.012774202264529692 0 0 0
2056 1 3100.0 9.53273910407264e-05 0.013238804443632337 0.002752576435936018 0.016625613967435775 0 0 0
2057 1 3100.0 0.00015153761998270803 0.002945140584903707 0.017688791154125524 0.0027581244084925816 0 0 0
2058 1 3100.0 4.785425853367731e-05 0.014731706304530892 0.01861643324781753 0.0032746130549891 0 0 0
2059 1 3100.0 1.6897083115540554e-05 0.0010971768194203723 0.00917027400504695 0.003831892106833963 0 0 0
2060 1 3100.0 0.00010233496421729281 0.0114678022191793 0.01189120226732011 0.012926951698547953 0 0 0
2061 1 3100.0 6.602009565005478e-05 0.017888062812574802 0.0018682429016293335 0.005856339024814203 0 0 0
2062 1 3100.0 1.3035009455233137e-05 0.017031161761404033 0.012554725732163931 0.0017191689333190215 0 0 0
2063 1 3100.0 4.953810110553798e-05 0.019083444076121853 0.003778197520135265 0.013933966429169314 0 0 0
2064 1 3100.0 1.770305349385022e-05 0.014118408813376792 0.010241740865663885 0.000969691407250147 0 0 0
2065 1 3100.0 5.39209538065104e-05 0.0037331389941287645 0.0021809386494199405 0.009598025854790042 0 0 0
2066 1 3100.0 0.00020047830907655753 0.015033266535553454 0.01740082206710886 0.001790461742585697 0 0 0
2067 1 3100.0 1.635801244823078e-05 0.019400070907136344 0.00047836360562585696 0.010131158768523095 0 0 0
2068 1 3100.0 4.98011116473546e-06 0.0007383500339247129 0.003341600489354082 0.005665038615198154 0 0 0
2069 1 3100.0 2.196274217371635e-05 0.012356774385111482 0.001746846542855896 0.00843499401341957 0 0 0
2070 1 3100.0 1.451703218064313e-05 0.010287829707262247 0.0007316305706535037 0.0189806222346621 0 0 0
2071 1 3100.0 4.9095479792987306e-05 0.01622469424738408 0.01665022319975055 0.01862402423109597 0 0 0
2072 1 3100.0 5.517935178743304e-06 0.018416819551134944 0.009449865278107605 0.0014435638140978717 0 0 0
2073 1 3100.0 0.00010167689692044036 0.008365235735254451 0.001083730586462834 0.0026262212357255773 0 0 0
2074 1 3100.0 7.25772523343745e-05 0.0027918788352833813 0.0005253186257623642 0.006133901161937654 0 0 0
2075 1 3100.0 0.00015788356212195686 0.012896210979773667 0.008359010734636251 0.01680886389088389 0 0 0
2076 1 3100.0 4.6880291551921086e-05 0.01754722282032827 0.01322050309507884 0.008891166605029052 0 0 0
2077 1 3100.0 7.09037649312691e-05 0.01122152836084678 0.011186376846473573 0.009924557297421916 0 0 0
2078 1 3100.0 1.864560202881662e-05 0.006017481266398602 0.011033668216579483 0.01242701215904175 0 0 0
2079 1 3100.0 5.445771920797062e-05 0.010361461995864133 0.007610971044080417 0.009760197506673163 0 0 0
2080 1 3100.0 5.28117822484186e-06 0.00993846073053417 0.019682028388156206 0.011137407569756104 0 0 0
2081 1 3100.0 6.367544649612534e-06 0.006837044275435633 0.0039213742456576 0.01736879439280271 0 0 0
2082 1 3100.0 1.5914934272786106e-05 0.004199948676083675 0.00030283548901789405 0.0026868813516391487 0 0 0
2083 1 3100.0 6.702259281426893e-05 0.007267402112045597 0.008096722625639043 0.018627541504448553 0 0 0
2084 1 3100.0 1.429072387120002e-05 0.006496974839698353 0.003432958182140126 0.005103644445505042 0 0 0
2085 1 3100.0 0.00013121788433765084 0.011571752219953739 0.018758080622722037 0.0012540724630454576 0 0 0
2086 1 3100.0 0.0001045809009735681 0.006308773400255062 0.0028870989625665398 0.0180873531168961 0 0 0
2087 1 3100.0 0.00014976256731857805 0.007388374092884239 0.006926644716780976 0.002258756236775952 0 0 0
2088 1 3100.0 0.00012708473133496851 0.0022607335647433207 0.013725275947438517 0.01778311718584009 0 0 0
2089 1 3100.0 1.1719367860877806e-05 0.01458307857836346 0.011886528327263281 0.010851302595739605 0 0 0
2090 1 3100.0 1.1300907483012527e-05 0.005739113056527586 0.014714077078424337 0.01747038581627754 0 0 0
2091 1 3100.0 4.157471991193925e-05 0.009429983870776574 0.012491813626056567 0.006308054062172898 0 0 0
2092 1 3100.0 4.062971502760358e-05 0.009361733742950388 0.005303860834240318 0.0003197950448275389 0 0 0
2093 1 3100.0 0.000172120171992593 0.010214253481257344 0.005168040321919939 0.00558414424527926 0 0 0
2094 1 3100.0 3e-05 0.009335386425553809 0.003737293237431896 0.015996763042024627 0 0 0
2095 1 3100.0 6.089666301546737e-06 0.019039110851645398 0.009173552319042856 0.013934079443082753 0 0 0
2096 1 3100.0 6.797540517808309e-05 0.011850827056163027 0.018986542378026626 0.018897751609473556 0 0 0
2097 1 3100.0 4e-05 0.0003579586499205628 0.005085093333428225 0.011538406723135792 0 0 0
2098 1 3100.0 0.0001195609855949319 0.01452328235582078 0.011914713560385506 0.009205508913873365 0 0 0
2099 1 3100.0 6.938988963587182e-05 0.013986086268212553 0.015631325472636126 0.01535291379823664 0 0 0
2100 1 3100.0 1.5568322197443005e-05 0.0006627064466562941 0.004376785267086701 0.01881145502328547 0 0 0
2101 1 3100.0 4.193707909641187e-05 0.007949221316738949 7.712377282603452e-05 0.016476769637967036 0 0 0
2102 1 3100.0 0.00016669985340282695 0.008301599237385042 0.0198231284909534 0.01387464397918735 0 0 0
2103 1 3100.0 0.00017210812138828435 0.0019268790019149299 0.005229126820339756 0.004586514779515895 0 0 0
2104 1 3100.0 1.299161594083673e-05 0.004635517995016701 0.019753308956741805 0.007360341021586902 0 0 0
2105 1 3100.0 8.108242971516746e-05 0.010728808064189013 0.010934794723906904 0.017151299338778944 0 0 0
2106 1 3100.0 0.0001290333899120131 0.0073612739654390445 0.010806403117245192 0.014515613467142243 0 0 0
2107 1 3100.0 7.497898735706388e-05 0.01750840510818083 0.006290278284445161 0.011418597705854402 0 0 0
2108 1 3100.0 3e-05 0.00956531805188758 0.0069021786073239465 0.009957408575836641 0 0 0
2109 1 3100.0 6.724948876827267e-05 0.009553266910192839 0.002145180206067996 0.014096442205206066 0 0 0
2110 1 3100.0 0.00010438671665062305 0.004054148954107967 0.010362579162821262 0.009717780924631806 0 0 0
2111 1 3100.0 0.0001686401780671262 0.01950188817653792 0.01697328093824402 0.007044835143487025 0 0 0
2112 1 3100.0 7.285141759782882e-05 0.0018110504677279352 0.0073289107027941554 0.007392337802990585 0 0 0
2113 1 3100.0 4e-05 0.007539450138245197 0.019305256933826998 0.017127640682634584 0 0 0
2114 1 3100.0 8.548972316417236e-05 0.006865587468515544 0.0022663061673755536 0.010886528666295 0 0 0
2115 1 3100.0 1.1503133350571323e-05 0.015526540107039034 0.015556302463428952 0.011169372124317083 0 0 0
2116 1 3100.0 1.0254264004245937e-05 0.011080155553403548 0.013063455385494714 0.012224406399044688 0 0 0
2117 1 3100.0 4e-05 0.0118890546661921 0.008866805308850662 0.010639151691929328 0 0 0
2118 1 3100.0 9.895481347793286e-05 0.0011813532717702294 0.01919913732682472 0.0020575582619731733 0 0 0
2119 1 3100.0 1.1143215342496696e-05 0.01918435471081709 0.0005246010979513313 0.008887321794406685 0 0 0
2120 1 3100.0 1.1870323680231125e-05 0.011638126177048175 0.015189177361629018 0.002658764037268638 0 0 0
2121 1 3100.0 8.274606517279817e-05 0.00642745231244506 0.0003311006608014092 0.012115363121672043 0 0 0
2122 1 3100.0 4.090671703814995e-05 0.0009663409691597347 0.018907831228124207 0.005507624767304581 0 0 0
2123 1 3100.0 0.00026390439331065507 0.013923385861651363 0.005529245393662272 0.008870888404015927 0 0 0
2124 1 3100.0 9.396648205238271e-05 0.0017113481674084212 0.00975953116980491 0.015246734323221055 0 0 0
2125 1 3100.0 4e-05 0.005269456456186864 0.017387271043377433 0.011116984768557976 0 0 0
2126 1 3100.0 6.295503359694246e-05 0.006067982178636973 0.010656477128049019 0.019916511847279328 0 0 0
2127 1 3100.0 5.4314391811023556e-05 0.004026363822400315 0.0012620997479169034 0.019911649543432663 0 0 0
2128 1 3100.0 6.45578595528085e-05 0.005185079840594053 0.005213356464768205 0.005090180592599789 0 0 0
2129 1 3100.0 3e-05 0.015958089270355493 0.0020946517139062144 0.008270826095743427 0 0 0
2130 1 3100.0 1.834151838580679e-05 0.004099221125791324 0.00419988245926259 0.016140087726366735 0 0 0
2131 1 3100.0 6.573138775692181e-05 0.016145356390752735 0.0036408078363583773 0.014871001844873265 0 0 0
2132 1 3100.0 3.2919403994515133e-06 0.011013006288666574 0.001045047159598305 0.018434334960476733 0 0 0
2133 1 3100.0 0.00020850553639364632 0.014747047153576116 0.012552036975564423 0.017235190692031704 0 0 0
2134 1 3100.0 6.892121605913975e-06 0.009102011836122453 0.019662507303670616 0.014178656346564527 0 0 0
2135 1 3100.0 5.1127998186100955e-05 0.005823948284043929 0.01691194853011207 0.010278021643420487 0 0 0
2136 1 3100.0 9.862789007567158e-05 0.013073372609371048 0.012466031223861586 0.006447702046330902 0 0 0
2137 1 3100.0 3e-05 0.01841389553496045 0.014858303326806415 0.018994617925351072 0 0 0
2138 1 3100.0 5.2144142950112624e-06 0.019091549396401224 0.0035250949973522146 0.007638477962378233 0 0 0
2139 1 3100.0 0.00015456830605485616 0.0015343697199425525 0.002967528131765633 0.005725118757606433 0 0 0
2140 1 3100.0 8.925529292828341e-05 0.014073526288897275 0.006151132090438461 0.0034555883197919506 0 0 0
2141 1 3100.0 5.329900775221642e-05 0.010573430230633478 0.01876809098967523 0.015084044386693422 0 0 0
2142 1 3100.0 6.779234053865899e-05 0.00878826545593138 0.009380542209533604 0.008115042404263738 0 0 0
2143 1 3100.0 9.656727823996313e-06 0.007952717860920885 0.006664703890474326 0.001673175332082028 0 0 0
2144 1 3100.0 7.586446207944001e-05 0.008985293446770898 0.014208216869323689 0.006482389206621151 0 0 0
2145 1 3100.0 7.280289676116006e-06 0.0012824095074659896 0.012407930187356328 0.002333503413061402 0 0 0
2146 1 3100.0 4e-05 0.004504404618898592 0.014305969390417573 0.01178388881552796 0 0 0
2147 1 3100.0 4e-05 0.0026498895585573322 0.01792607205450127 0.005660566238868179 0 0 0
2148 1 3100.0 7.178374264576213e-06 0.0037950699930885943 0.003637026380962499 0.001710556622680915 0 0 0
2149 1 3100.0 0.00010925320563738428 0.013926425308439724 0.016817532695660345 0.012917606207625405 0 0 0
2150 1 3100.0 4.3338894415044555e-05 0.008842007188497605 0.012443835716313733 0.0013074632132095581 0 0 0
2151 1 3100.0 0.00010678897274051275 0.011369363748153971 0.0038635881839129134 0.016506502479426338 0 0 0
2152 1 3100.0 0.00010673422644669465 0.01331842936697775 0.01525077352150373 0.004095783698146266 0 0 0
2153 1 3100.0 7.212858511609154e-06 0.019142613637450463 0.016109544015358065 0.0059637408295631 0 0 0
2154 1 3100.0 0.0001325117852098937 0.017675631008934045 0.009535394206723107 0.0008430606461089249 0 0 0
2155 1 3100.0 8.567217893483971e-05 0.007004671793025538 0.01986583606394072 0.002375985136192599 0 0 0
2156 1 3100.0 8.785139805451193e-05 0.017148251967095657 0.009675815740746026 0.007558644835926404 0 0 0
2157 1 3100.0 5.971491663852324e-06 0.002544384641355334 0.016344183540182605 0.007255750951066159 0 0 0
2158 1 3100.0 6.387078673430633e-05 0.0016767903233068213 0.014627393636680858 0.001300712912213954 0 0 0
2159 1 3100.0 4.929860203346075e-05 0.00681770303962272 0.019061639466454304 0.011649175693274016 0 0 0
2160 1 3100.0 0.00010730174761042004 0.016121516480824355 0.0035120439460047527 0.007961520362996497 0 0 0
2161 1 3100.0 6.852909945012757e-05 0.004039981426276864 0.007843655594904802 0.010799610085783319 0 0 0
2162 1 3100.0 4.825848104692107e-05 0.01868474026418301 0.013423300780172537 0.010943022150814241 0 0 0
2163 1 3100.0 7.081206378359172e-05 0.01945522556102429 0.010439796640279752 0.006643926771422637 0 0 0
2164 1 3100.0 8.77308100871528e-05 0.0011604208718910822 0.016025544828981247 0.01429293912261971 0 0 0
2165 1 3100.0 1.0211175286431606e-05 0.015458745714951115 0.013380328766054203 0.005897140307064223 0 0 0
2166 1 3100.0 3e-05 0.011828071303645587 0.0116815350420322 0.015336325494002176 0 0 0
2167 1 3100.0 4.0542946709445096e-05 0.0018736751222483224 0.006330530920437952 0.002083946185570529 0 0 0
2168 1 3100.0 2.984564183767811e-05 0.015333212503013262 0.015622550373859546 0.014014079178813277 0 0 0
2169 1 3100.0 4e-05 0.019626776364242638 0.008267458950857834 0.009404313195524722 0 0 0
2170 1 3100.0 7.17408698861692e-05 0.01441240866939054 0.003326946010126928 0.0008545918921226724 0 0 0
2171 1 3100.0 0.0001374692691890543 0.017405523744030642 0.0011172280931116792 0.01947526175335577 0 0 0
2172 1 3100.0 8.455807386410284e-05 0.018438104417618482 0.0060541032068644595 0.009203586919369977 0 0 0
2173 1 3100.0 9.911954094869838e-05 0.00019818182117697228 0.0017355271580566539 0.005631358549842308 0 0 0
2174 1 3100.0 1.2491815308615135e-05 0.0017780306912602048 0.009280754999523697 0.009442728737843381 0 0 0
2175 1 3100.0 1.0441664803161523e-05 0.007884458339334781 0.005559742690046857 0.0007102155122759518 0 0 0
2176 1 3100.0 0.00021296027877804153 0.018711626801628335 0.01566559332886828 0.013784556034959886 0 0 0
2177 1 3100.0 0.00012535423551161175 0.018383916336006136 0.013765673675676228 0.017930655803276328 0 0 0
2178 1 3100.0 9.216460511262283e-05 0.0035742877584991456 0.003627261694894909 0.0019941795174089295 0 0 0
2179 1 3100.0 3e-05 0.0014783415750125595 0.011024161550719612 0.019432930331597684 0 0 0
2180 1 3100.0 1.3606721420024511e-05 0.00048081751148102905 0.014835200129025908 0.01996518765860735 0 0 0
2181 1 3100.0 1.535084665483013e-05 0.0011876995274768445 0.0016934294955670936 0.015377133690061556 0 0 0
2182 1 3100.0 4.342508485070629e-06 0.007792155786638017 7.879205135274233e-05 0.0015608446819017202 0 0 0
2183 1 3100.0 6.442333552217844e-05 0.012961808797070755 0.017194868558306767 0.00749823760844048 0 0 0
2184 1 3100.0 6.072867298856221e-05 0.016281787646598534 0.011731717411496208 0.008704727315999377 0 0 0
2185 1 3100.0 0.00027308175145488914 0.007534668740195083 0.014945991604372265 0.008671609889886462 0 0 0
2186 1 3100.0 7.890662049831169e-05 0.017537273794944536 0.01966968490611538 0.0027898067757857027 0 0 0
2187 1 3100.0 9.017441013742474e-06 0.011484154967075126 0.017484519958670588 0.011326043331797866 0 0 0
2188 1 3100.0 6.290633274520851e-05 0.015920074788916768 0.002015863016809693 0.018264562833255487 0 0 0
2189 1 3100.0 1.679149089364017e-05 0.016591255792008416 0.01736044389549717 0.006559064784130949 0 0 0
2190 1 3100.0 0.00012333056864214476 0.011718723034458851 0.0023410858714822277 0.012108211745041984 0 0 0
2191 1 3100.0 6.8554614049502964e-06 0.01698389512863137 0.005697528387002493 0.006665002305461043 0 0 0
2192 1 3100.0 9.201496294768464e-06 0.01897174940422871 0.008238627163709836 0.008821207144835218 0 0 0
2193 1 3100.0 1.5504661689634623e-05 0.00894901163039393 0.01867819862429508 0.009922663259145101 0 0 0
2194 1 3100.0 0.00013521891992668088 0.002057841518954729 0.019387834475304573 0.002661912996668593 0 0 0
2195 1 3100.0 4.914177664438004e-06 0.017907179573660805 0.009328266460669374 0.017815246650105716 0 0 0
2196 1 3100.0 5.536861699975487e-05 0.013557527824579705 0.008854621622743657 0.011080473161143654 0 0 0
2197 1 3100.0 0.00023733052006258656 0.006870074187919417 0.0006029777159558405 0.009916303559480153 0 0 0
2198 1 3100.0 6.466276827961828e-05 0.014147081139224676 0.0019945847119711745 0.00986632123972699 0 0 0
2199 1 3100.0 4.5635371805463885e-05 0.00963667424506219 0.009386528495523887 0.01885262937896425 0 0 0
2200 1 3100.0 6.475362776783017e-05 0.0139073008517895 0.005277420290918297 0.004689855199135788 0 0 0
2201 1 3100.0 8.875671182327287e-05 0.0005624910176716625 0.007915858929657694 0.01780620069404095 0 0 0
2202 1 3100.0 5.923964007573974e-06 0.016215815448772482 0.007412157028121027 0.007353926441690569 0 0 0
2203 1 3100.0 3e-05 0.019677405247407753 0.01071793888468614 0.004829232499480224 0 0 0
2204 1 3100.0 6.646174089745368e-05 0.002691349745694086 0.008671511873529117 0.018023175747958444 0 0 0
2205 1 3100.0 6.907572898385765e-05 0.012189883711331824 0.0012573466704280663 0.010417296747735005 0 0 0
2206 1 3100.0 1.6770417498532145e-05 0.017439885296232156 0.014446569228240865 0.006056641781827289 0 0 0
2207 1 3100.0 0.00011939493878971861 0.018140455411145555 0.004733246610213956 0.008506713217453917 0 0 0
2208 1 3100.0 4e-05 0.003368775828156163 0.0031927066545161366 0.013368896534986538 0 0 0
2209 1 3100.0 5.48307278451907e-05 0.015291452825531045 0.0068887275777066385 0.002628975810135962 0 0 0
2210 1 3100.0 6.178507785105913e-05 0.0016869305408298105 0.013861956326147012 0.0061981145153301425 0 0 0
2211 1 3100.0 0.00017109420704260287 0.010189012311664846 0.002216198235580003 0.015558491358679349 0 0 0
2212 1 3100.0 1.41249208336668e-05 0.018538678774338683 0.012953870373004652 0.00019580852293068956 0 0 0
2213 1 3100.0 6.278038396428599e-05 0.016173279214474298 0.011807638592771494 0.004995364385339514 0 0 0
2214 1 3100.0 1.892617187741947e-05 0.010596072325590173 0.007472080344974336 0.01712630000696738 0 0 0
2215 1 3100.0 1.296719845588261e-05 0.012815811900203948 0.015684443625911676 0.005167693063093473 0 0 0
2216 1 3100.0 2.268688473191793e-05 0.00726514493843432 0.009559926851576445 0.019857766379389852 0 0 0
2217 1 3100.0 7.783711602403678e-05 0.013079684143299198 0.0012226163403727414 0.016192163134290716 0 0 0
2218 1 3100.0 5.672194016895271e-05 0.008608937226622874 0.0010744726960927322 0.0004327244561450893 0 0 0
2219 1 3100.0 9.906148975903052e-05 0.0007399830788038681 0.0012019347491431802 0.013819791401587275 0 0 0
2220 1 3100.0 7.497717440605413e-05 0.010269728479004694 0.01623438658699835 0.0052076458576825226 0 0 0
2221 1 3100.0 0.00013996161262981932 0.007037823269189781 0.00077363800652912 0.00944184672136066 0 0 0
2222 1 3100.0 0.00010734127032074439 0.005729430413572185 0.00861281354230595 0.01877223985312742 0 0 0
2223 1 3100.0 4.1232204176445066e-05 0.002125954729406332 0.01904953755959849 0.015902599952984126 0 0 0
2224 1 3100.0 0.00011506321144359245 0.003608366062476752 0.012938868433294518 0.009508820305396654 0 0 0
2225 1 3100.0 6.257819856743342e-05 0.008611231500179721 0.01793601167768842 0.0009623178814937741 0 0 0
2226 1 3100.0 9.444553817262628e-06 0.010505319967439608 0.0135920806925878 0.01484189277128437 0 0 0
2227 1 3100.0 8.58215746268041e-05 0.003466587460449002 0.0049993737384203115 0.010951337762225323 0 0 0
2228 1 3100.0 6.386854553899694e-05 0.011214755102198564 0.005537007350861509 0.011972598842972242 0 0 0
2229 1 3100.0 1.6891922888585053e-05 0.019600299835285315 0.003894276275232403 0.0057243411878672625 0 0 0
2230 1 3100.0 0.0002289003303260721 0.002401593663283947 0.004438784655156266 0.01182426579537583 0 0 0
2231 1 3100.0 2.3292019682674907e-05 0.019447129118894735 0.014343197359918874 0.013929879661222588 0 0 0
2232 1 3100.0 0.00011147816773774311 0.013483169127480718 0.016050119872880818 0.015997784814312407 0 0 0
2233 1 3100.0 0.00016261404327823023 0.006263165434809662 0.015192282448566487 0.002992944030477465 0 0 0
2234 1 3100.0 6.407244015002986e-05 0.01781341662991546 0.01192407220568981 0.017567963535920883 0 0 0
2235 1 3100.0 7.377578668745756e-05 0.00932672323900472 0.009318654951212634 0.01664671692712638 0 0 0
2236 1 3100.0 1.1513376825855645e-05 0.015622777873483013 0.01757891948617677 0.016875576329382455 0 0 0
2237 1 3100.0 0.00010007980659911193 0.019768903832336468 0.01836337746777701 0.010014430800091232 0 0 0
2238 1 3100.0 0.00010064591298828291 0.002795673389187724 0.009545680348188593 0.006244826737888126 0 0 0
2239 1 3100.0 0.00017730241290554757 0.010480169111742117 0.004931625607238329 0.01419647439275174 0 0 0
2240 1 3100.0 1.0048069089207435e-05 0.012830157039122535 0.005335016809178015 0.019063179358488776 0 0 0
2241 1 3100.0 8.627709892812662e-05 0.014793468928157515 0.00457411924130595 0.007666663994853895 0 0 0
2242 1 3100.0 9.713028626949296e-05 0.0038556427508064203 0.0010819488765634103 0.0081255607674583 0 0 0
2243 1 3100.0 6.143710044379043e-05 0.01705594355946064 0.013755863357119761 0.011495095209595218 0 0 0
2244 1 3100.0 1.353944323255485e-05 0.0005632137293282985 0.0014274816524949747 0.013084933055295137 0 0 0
2245 1 3100.0 7.758465850487844e-05 0.01858346864432575 0.007712771155471733 0.004582635627357303 0 0 0
2246 1 3100.0 1.3895374859395483e-05 0.002017991342572182 0.0027251655310999707 0.0033643855678285686 0 0 0
2247 1 3100.0 7.174920547579426e-05 0.004192281999387966 0.014182677520907105 0.018121404432696005 0 0 0
2248 1 3100.0 0.00011212457109045574 0.012735037254374455 0.009292876733525291 0.01929715770302937 0 0 0
2249 1 3100.0 6.284791348351302e-05 0.009474932145047505 0.008814275782643084 0.008562279759559888 0 0 0
2250 1 3100.0 7.096310255487096e-05 0.017643282953584083 0.01457977437179486 0.002139183003562831 0 0 0
2251 1 3100.0 6.808379434826295e-05 0.013417057714203939 0.013464754126197966 0.012465208711719862 0 0 0
2252 1 3100.0 3e-05 0.019101430673630806 0.009916910804785222 0.019171337310765674 0 0 0
2253 1 3100.0 9.978557716676572e-05 0.0029843905005081856 0.015343855729292763 0.003147137993228938 0 0 0
2254 1 3100.0 1.600218311034667e-05 0.008309538738058606 0.0048753053886687586 0.018184494940235628 0 0 0
2255 1 3100.0 9.01193149487514e-05 0.010185484109814673 0.015449689253046739 0.005215109245886036 0 0 0
2256 1 3100.0 4.673102024463553e-05 0.018187142289041346 0.008494189032275733 0.0010314526762826427 0 0 0
2257 1 3100.0 0.00012241440113859445 0.011705227804118097 0.019033249385161512 0.019215657827045762 0 0 0
2258 1 3100.0 2.6705442343827446e-05 0.009764038250490572 0.010122699038891163 0.0005455526362631109 0 0 0
2259 1 3100.0 0.00021128187080642576 0.011116554148494526 0.013793122587809303 0.010370537841291147 0 0 0
2260 1 3100.0 9.304626044652053e-05 0.01633530090090566 0.014897312262636676 0.018736277929286116 0 0 0
2261 1 3100.0 1.2888339975371454e-05 0.019502221675467266 0.0004334205749916568 0.015847900680783896 0 0 0
2262 1 3100.0 0.00011801562243326574 0.0028659761535865503 0.014638505075184749 0.004246875743747106 0 0 0
2263 1 3100.0 0.00015612430326446188 0.012180848177025706 0.011728105491950068 0.016845630290386784 0 0 0
2264 1 3100.0 0.0001527224130864794 0.011403365525414171 0.009981828867079117 0.011581541085568864 0 0 0
2265 1 3100.0 7.178431469435203e-05 0.009586157215787096 0.014080676052923112 0.013321876243845112 0 0 0
2266 1 3100.0 0.0001359107155207098 0.0195317130935845 0.011929547828476971 0.011582859331048136 0 0 0
2267 1 3100.0 6.218918555042514e-06 0.0064373473162666235 0.0057792176923146 0.007882761696051057 0 0 0
2268 1 3100.0 6.366338489316323e-05 0.006634520311014391 0.011538899665738466 0.0020658527222532403 0 0 0
2269 1 3100.0 8.884738363710743e-05 0.007632156080463388 0.001038016167757196 0.0007576783453966204 0 0 0
2270 1 3100.0 4.886389825491288e-05 0.014663565388683244 0.013482995431773802 0.013166649853846892 0 0 0
2271 1 3100.0 9.352081408226033e-05 0.0033234093066903682 0.011809871183290448 0.0015331795968358012 0 0 0
2272 1 3100.0 0.0001557402687457053 0.015710963635400237 0.016686901700203084 0.005221172829782912 0 0 0
2273 1 3100.0 6.660072546672077e-05 0.01246297977565845 0.006351468679051978 0.005710109381116648 0 0 0
2274 1 3100.0 6.137224023320276e-05 0.011237435460679027 0.015372363609127623 0.011187375156937358 0 0 0
2275 1 3100.0 0.00013370838242932344 0.01852385052597922 0.007188218143628851 0.018844741911437653 0 0 0
2276 1 3100.0 6.554841103073925e-05 0.0035315331217596908 0.011748755348345713 0.016784228613649085 0 0 0
2277 1 3100.0 0.0001538288038733927 0.006764125265226235 0.017970238335706275 0.005781991677983227 0 0 0
2278 1 3100.0 9.155456688187414e-05 0.019446792887743994 0.018924011483572183 0.01417195145057748 0 0 0
2279 1 3100.0 7.402775401613011e-06 0.005547957204782755 0.016576059698118532 0.0010167760107014669 0 0 0
2280 1 3100.0 9.372226841992877e-06 0.0019383566738671349 0.001613694234470839 0.006743533099434797 0 0 0
2281 1 3100.0 8.837617221242852e-05 0.006222540836557505 0.006866458273068851 0.00249945432073341 0 0 0
2282 1 3100.0 9.57134470488261e-06 0.013538436750425596 0.0029370514210097487 0.012176383319527714 0 0 0
2283 1 3100.0 1.0278734204489827e-05 0.015595940170360421 0.008920850671506936 0.014102257189751242 0 0 0
2284 1 3100.0 4.87064858793656e-05 0.008720341088192233 0.014524706940504332 0.013485865921419314 0 0 0
2285 1 3100.0 0.00011361403939523921 0.009044342513574178 0.014153103090199369 0.004926655530371158 0 0 0
2286 1 3100.0 1.7516945186986072e-05 0.002905656048485205 0.01686169585367525 0.01651576979814948 0 0 0
2287 1 3100.0 6.155880928746808e-05 0.0013256124747048302 0.011145500416954494 0.014148786667920979 0 0 0
2288 1 3100.0 3.6920694127883215e-06 0.00466533320985809 0.003699966599557823 0.009654674982805702 0 0 0
2289 1 3100.0 6.74330098657748e-05 0.016084013476882 0.007067412547579855 0.008675237929378556 0 0 0
2290 1 3100.0 4e-05 0.019062536337310868 0.008761787670348185 0.016638480502813753 0 0 0
2291 1 3100.0 7.006544175395548e-05 0.0032353412871047194 0.01744843046919208 0.0067873942769926055 0 0 0
2292 1 3100.0 7.531312608485889e-05 0.013620098585024287 0.014930646220717245 0.011350732911613221 0 0 0
2293 1 3100.0 5.3265426917640365e-05 0.015910981906200817 0.011493485965464156 0.009258068935538554 0 0 0
2294 1 3100.0 0.00012884566888643207 0.016533131076245017 0.004365674044642892 0.007178114189770172 0 0 0
2295 1 3100.0 1.1449732844037941e-05 0.003579406315670503 0.019713041167001736 0.017315305798899682 0 0 0
2296 1 3100.0 1.3018821533551113e-05 0.011615996316932012 0.004564175536804358 0.006365442451553548 0 0 0
2297 1 3100.0 0.00011002255353406365 0.0012275815357332875 0.014406558587247193 0.00378331238620313 0 0 0
2298 1 3100.0 4e-05 0.01738977839850164 0.0089905006968895 0.003442503431645371 0 0 0
2299 1 3100.0 7.660706456812349e-05 0.010281159912237768 0.01116946436271138 0.013991507524525106 0 0 0
2300 1 3100.0 8.866259165562113e-06 0.019474182567127952 0.0016126124031577047 0.002698277488107757 0 0 0
2301 1 3100.0 6.311296922565534e-06 0.011691679227891508 0.016400925401897873 0.002048481987883804 0 0 0
2302 1 3100.0 1.4586445139847961e-05 0.011126006370447914 0.009214720431923664 0.007095665379317131 0 0 0
2303 1 3100.0 9.631129961632218e-06 0.009841915390901894 0.014980975546901901 0.011513799974557839 0 0 0
2304 1 3100.0 4e-05 0.014577569715719012 0.00902363707982575 0.018802443819184902 0 0 0
2305 1 3100.0 8.587342411619314e-05 0.015298930061760556 0.01114383404011527 0.004876358019790812 0 0 0
2306 1 3100.0 0.0001700198785721137 0.019106959544072905 0.014479457687053991 0.004716929177759266 0 0 0
2307 1 3100.0 1.1996315857447151e-05 0.008826596246736535 0.017659275506586105 0.013004944994624623 0 0 0
2308 1 3100.0 1.5561032421330715e-05 0.01207643459383038 0.005840198747406035 0.008198659118894596 0 0 0
2309 1 3100.0 6.57555234438438e-06 0.0027752534135755597 0.01680482354567643 0.018189682460524364 0 0 0
2310 1 3100.0 1.8470319597767116e-05 0.011262925692961874 0.01625589838528697 0.018399271663077452 0 0 0
2311 1 3100.0 0.00012352635839902397 0.002774963760128871 0.013050003184381829 0.004299423919454356 0 0 0
2312 1 3100.0 0.0002925183107918419 0.0025863834034214822 0.002868949197081686 0.017992042095237578 0 0 0
2313 1 3100.0 2.433800862402204e-05 0.0015731838570471814 0.0012257065972529108 0.019829221932676378 0 0 0
2314 1 3100.0 6.4368589376112534e-06 0.006046348423826341 0.010130892886672075 0.0075824661808122085 0 0 0
2315 1 3100.0 1.3910397628726875e-05 0.011228075166195898 0.005487261013264893 0.006924632486033486 0 0 0
2316 1 3100.0 8.039971117861067e-05 0.01932929478187621 0.018539905944474855 0.00020616037629158027 0 0 0
2317 1 3100.0 7.031053536709935e-05 0.008458057352012084 0.018453802360572525 0.016968661330025198 0 0 0
2318 1 3100.0 9.214799899556782e-06 0.006937251468859507 0.015723545977287756 0.005258860885224182 0 0 0
2319 1 3100.0 0.00012141775745120104 0.0081401540807184 0.0034394573995583533 0.017198757140917027 0 0 0
2320 1 3100.0 0.00014000056250585083 0.005596153116362899 0.016813806925378417 0.007146325975549847 0 0 0
2321 1 3100.0 1.2482698047639785e-05 0.018364123427584044 0.00011379369012046117 0.009146302237564873 0 0 0
2322 1 3100.0 7.210593889034076e-05 0.014277699183956884 0.010072082985875244 0.0038393265301206393 0 0 0
2323 1 3100.0 3e-05 0.016214004301948477 0.016478248031122713 0.00141107980351243 0 0 0
2324 1 3100.0 4e-05 0.013239918241074419 0.007109014657413461 0.007095669767359176 0 0 0
2325 1 3100.0 7.334385023091388e-05 0.01853321473247732 0.01008423193635857 0.0182088755725063 0 0 0
2326 1 3100.0 0.00016513064751613315 0.016246484129240034 0.010879441036528693 0.008551223510238076 0 0 0
2327 1 3100.0 6.969924821012772e-05 0.006508117090621665 0.006490611062863827 0.0084435978917801 0 0 0
2328 1 3100.0 9.52388803443163e-06 0.015691533178233318 0.0030299836672051687 0.012072221256275923 0 0 0
2329 1 3100.0 9.079825930252617e-05 0.014492451579442988 0.008366052068409163 0.016443451938166757 0 0 0
2330 1 3100.0 9.140548504539551e-05 0.001182175691893585 0.014376019325796264 0.007222895538916174 0 0 0
2331 1 3100.0 2.0173167546578687e-05 0.016982699780277118 0.013235689881939463 0.01154419872856614 0 0 0
2332 1 3100.0 1.1196557046941144e-05 0.014663083106004048 0.005206077874576493 0.0008038009820324861 0 0 0
2333 1 3100.0 6.641338771773952e-05 0.002320213156788879 0.0014855053172878792 0.017438800377893412 0 0 0
2334 1 3100.0 5.740310616806339e-05 0.016656646227653234 0.016781858956288996 0.0008448112099702412 0 0 0
2335 1 3100.0 5.912001379991723e-06 7.28150101847527e-05 0.01223418659397921 0.002885794840349017 0 0 0
2336 1 3100.0 6.872624677348377e-05 0.019121530946155273 0.00029711658334290273 0.014617209949712336 0 0 0
2337 1 3100.0 0.00010470169849314557 0.006361646436287973 0.011231731536446757 0.007129033717791248 0 0 0
2338 1 3100.0 7.525924084079074e-05 0.013898921960298894 0.0016629337760976533 0.008517928308225692 0 0 0
2339 1 3100.0 8.159200868870783e-06 0.01188649087647683 0.017052954939169016 0.0183130182007435 0 0 0
2340 1 3100.0 5.880626662440091e-05 0.006502825025722581 0.012018506208465719 0.003020868619197148 0 0 0
2341 1 3100.0 7.34036208291463e-05 0.006311694622159075 0.017847931780519737 0.013788160948314185 0 0 0
2342 1 3100.0 0.00012931812858874586 0.01785057821274501 0.018872116188640934 0.006514970472715771 0 0 0
2343 1 3100.0 5.14270837729826e-05 0.010389069680247803 0.019864385288233536 0.006478381532667685 0 0 0
2344 1 3100.0 6.664486977419862e-05 0.005562048242752603 0.010345106879401664 0.010332237186388727 0 0 0
2345 1 3100.0 0.000118802775254752 0.01384733297465052 0.019875171212889224 0.01154505033422673 0 0 0
2346 2 7870.0 0.0003 0.019066886699328947 0.0013509730633904937 0.016441158946310847 0 0 0
2347 1 3100.0 5.2020229653454226e-05 0.01697764289629946 0.010548312508737877 0.004221386064860888 0 0 0
2348 1 3100.0 3e-05 0.01055447055488504 0.011015278745677922 0.006948409414924817 0 0 0
2349 1 3100.0 0.00013093373582464084 0.007370507990597057 0.0007420952772017638 0.002950280837405379 0 0 0
2350 1 3100.0 2.197261310154718e-05 0.005138898169190373 0.00015609104672970007 0.009772828212411407 0 0 0
2351 1 3100.0 1.8108375369683213e-05 0.011083421149455095 0.010727934889164082 0.016379987508889977 0 0 0
2352 1 3100.0 6.130939573392179e-05 0.00599473252456083 0.01392115922380567 0.007532579030514767 0 0 0
2353 1 3100.0 1.4010923313417565e-05 0.01804577368462071 0.004926672424462747 0.014680745351489503 0 0 0
2354 1 3100.0 1.1886931555599914e-05 0.004541315286553435 0.00809412988047324 0.003466770140782144 0 0 0
2355 1 3100.0 6.498161907049291e-05 0.012921061235911281 0.017070137568284686 0.013279006881927931 0 0 0
2356 1 3100.0 7.048889581143182e-05 0.008309649420987735 0.019523395580017786 0.0020182001300225105 0 0 0
2357 1 3100.0 7.245383803355571e-06 0.013487308107362731 0.0022904949116367614 0.0037744627345518244 0 0 0
2358 1 3100.0 2.2524084038239048e-05 0.012359928084091459 0.006544879430720271 0.01001125812039157 0 0 0
2359 1 3100.0 6.897676917033048e-05 0.012589996317200066 0.017988040142336032 0.01756994611736355 0 0 0
2360 1 3100.0 0.0001832047870608621 0.012416904336217019 0.013331513627636916 0.018004537109988873 0 0 0
2361 1 3100.0 0.00011945694980448658 0.005434317209397598 0.0017533455364021446 0.006670490221289057 0 0 0
2362 1 3100.0 8.632972988845532e-05 0.010307426781914267 0.0054360860422401494 0.013946064081030201 0 0 0
2363 1 3100.0 9.74532846090973e-06 0.00472175541252033 0.0023119874318322663 0.003835800559545962 0 0 0
2364 1 3100.0 8.399981908827643e-05 0.008654845967340747 0.000570556563450757 0.007476462341067167 0 0 0
2365 1 3100.0 0.0001678335421179123 0.0021505739107574736 0.016809196901688972 0.006110207110675436 0 0 0
2366 1 3100.0 6.797115986491416e-05 0.008450886161659739 0.009045154702760853 0.018993411797348 0 0 0
2367 1 3100.0 6.963338826060099e-05 0.00474042522930642 0.014804689766179992 0.004688680843612376 0 0 0
2368 1 3100.0 1.3767342991162355e-05 0.012400008237773843 0.01809068926757775 0.00641233530488703 0 0 0
2369 1 3100.0 0.0001533907960834656 0.012355150360501792 0.010687938043936467 0.018231811477317283 0 0 0
2370 1 3100.0 6.230781902782876e-05 0.011798362479526052 0.018504286571956848 0.018656842834604847 0 0 0
2371 1 3100.0 6.188029233336415e-05 0.0009544426385844564 0.010688385929789325 0.007128917594135116 0 0 0
2372 1 3100.0 7.033517913369425e-06 0.0012312188995884682 0.00395244723035447 0.007104525984643271 0 0 0
2373 1 3100.0 0.00012987258116390168 0.019512059625162326 0.006665847747146511 0.0033567811215032004 0 0 0
2374 1 3100.0 1.0838748846361941e-05 0.012839738733088751 0.013684595418270091 0.0177742945451739 0 0 0
2375 1 3100.0 1.1779483072435655e-05 0.018352135042323216 0.019846176929515846 0.013023296120434296 0 0 0
2376 1 3100.0 7.096225239338072e-05 0.016842601346618 0.01567507051345195 0.007215515627660486 0 0 0
2377 1 3100.0 0.00010516835773091394 0.016286902045641143 0.0005776360666896071 0.0029732661860896108 0 0 0
2378 1 3100.0 0.00013906527851756062 0.007687385804174805 0.008250781759581955 0.008278016206728111 0 0 0
2379 1 3100.0 8.702465775349714e-06 0.011598698429965021 0.017205044342564573 0.004923459536906768 0 0 0
2380 1 3100.0 2.1219948662489423e-05 0.014593797988919839 0.017910550408340022 0.0013214990710034096 0 0 0
2381 1 3100.0 9.156309473599542e-06 0.010466252078463545 0.014140763905652935 0.0007294748312765824 0 0 0
2382 1 3100.0 0.0001425805235980749 0.01268224039787988 0.010552507980099296 0.00547202503428957 0 0 0
2383 1 3100.0 8.522351740163289e-06 0.0020302347577560807 0.00901928343373965 0.017518179593954693 0 0 0
2384 1 3100.0 7.757338593908304e-05 0.017210109324831923 0.019879203619359558 0.0037301946819202772 0 0 0
2385 1 3100.0 3e-05 0.012816278141177693 0.01157363391231154 0.010112723592463924 0 0 0
2386 1 3100.0 9.672637089068387e-06 0.004279378285551971 0.007242829202610694 0.013621639522771263 0 0 0
2387 1 3100.0 7.549303978786809e-05 0.01716527394924828 0.01740491994883612 0.007466169539628943 0 0 0
2388 1 3100.0 0.00010138343614711937 0.004971938372844093 0.0136672117212686 0.0011194087365112076 0 0 0
2389 1 3100.0 4e-05 0.007758621546642963 0.00816500912944977 0.019159193340335962 0 0 0
2390 1 3100.0 8.641879154943551e-06 0.015948457568262894 0.013033746279963338 0.01934152635783604 0 0 0
2391 1 3100.0 0.0001021334826101045 0.005555087714864547 0.00932890234434857 0.005125921453447277 0 0 0
2392 1 3100.0 5.260433799726747e-05 0.010526984480482417 0.019353824562325317 0.017322177524507914 0 0 0
2393 1 3100.0 7.823501229916281e-05 0.01807904391033303 0.01032930317695268 0.01268074379084047 0 0 0
2394 1 3100.0 7.717052994165443e-06 0.011542059074266623 0.001686351860960142 0.01408779997182145 0 0 0
2395 1 3100.0 4e-05 0.004602724870580109 0.005359180070816672 0.012536206533581068 0 0 0
2396 1 3100.0 5.534899853653927e-05 0.0008850030766325127 0.006515298415158792 0.01120783168893052 0 0 0
2397 1 3100.0 4.189261204061969e-05 0.014575242111396474 0.01569599938647491 0.0048054807258819275 0 0 0
2398 1 3100.0 4e-05 0.007034917134816234 0.011255824911552977 0.019001383452560663 0 0 0
2399 1 3100.0 0.00025015223946759486 0.00889777252298678 0.006334053426154679 0.005749666517695401 0 0 0
2400 1 3100.0 0.00016210486945967114 0.00513369253650722 0.011287532564124977 0.01518981701299348 0 0 0
2401 1 3100.0 3e-05 0.014072025671016586 0.005101408668407258 0.008743581401702333 0 0 0
2402 1 3100.0 4e-05 0.008248793176380697 0.013304114905633171 0.0070981497609384 0 0 0
2403 1 3100.0 7.930579538078512e-05 0.015140244961473233 0.014021831741821285 0.015938561214799644 0 0 0
2404 1 3100.0 8.251931977378777e-05 0.003295617458456533 0.014726057871239852 0.013412760484186777 0 0 0
2405 1 3100.0 0.00011738528710766406 0.00853737841278164 0.013884329763069888 0.014474981881935661 0 0 0
2406 1 3100.0 1.0551950267733598e-05 0.014675153405230984 0.017661852241281396 0.008052381990281651 0 0 0
2407 1 3100.0 0.00015380484065513213 0.004383315903432379 0.006410471125870709 0.019500515160612266 0 0 0
2408 1 3100.0 5.810779561684206e-06 0.015585794294160996 0.010931267076552339 0.00821598746056397 0 0 0
2409 1 3100.0 8.18776671814212e-05 0.0061847752940631705 0.011608018679037836 0.005042304076821448 0 0 0
2410 1 3100.0 6.487483732979756e-05 0.000659540677640835 0.005415020627229344 0.008037493429289295 0 0 0
2411 1 3100.0 3e-05 0.00015844645416730407 0.008562027826001059 0.010767320894518569 0 0 0
2412 1 3100.0 5.602294041937793e-05 0.01153027065077702 0.01098741103909542 0.01657273840473435 0 0 0
2413 1 3100.0 0.00012588921629440585 0.00842324719159198 0.018834201683662777 0.01944351880486192 0 0 0
2414 1 3100.0 1.2677908901763335e-05 0.01905476622929577 0.018964959531851205 0.009822547776231151 0 0 0
2415 1 3100.0 4e-05 0.005624293242494165 0.019934191707893525 0.009900804210759078 0 0 0
2416 1 3100.0 7.95961178184221e-06 0.01807414946178902 0.01883924456920757 0.00785691018757352 0 0 0
2417 1 3100.0 5.85120919085744e-05 0.011723440198284672 0.00012240886963244807 0.0028188565338381592 0 0 0
2418 1 3100.0 0.00017575339061591354 0.004526304486493876 0.00817644272921676 0.009818906006189823 0 0 0
2419 1 3100.0 6.22507899942182e-05 0.0018991424721287295 0.0033249299462759555 0.004309333421434347 0 0 0
2420 1 3100.0 6.921062368144602e-06 0.00770930193706083 0.016207269080151354 0.00267474593656707 0 0 0
2421 1 3100.0 3.738463211548148e-06 0.018462320696678122 0.010897631500148967 0.0163571680728586 0 0 0
2422 1 3100.0 5.884169002518288e-06 0.015513360509755764 0.006019687936711153 0.008549144697051272 0 0 0
2423 1 3100.0 0.0001027873755917264 0.018257122961641423 0.007425650162865564 0.010929311446697797 0 0 0
2424 1 3100.0 0.00015269240967021226 0.006258588423173885 0.014030345108199697 0.008361171910339122 0 0 0
2425 1 3100.0 0.00014574350739791244 0.008170044234494139 0.00045911851149177505 0.019575241802797665 0 0 0
2426 1 3100.0 6.684625447152246e-05 0.01267472985470692 0.012796090905840586 0.017482374758609438 0 0 0
2427 1 3100.0 1.1774802169939847e-05 0.013041108856925021 0.015005595546659497 0.00817048286987739 0 0 0
2428 1 3100.0 4.7021383674161665e-05 0.0031599610197995073 0.005608269856263337 0.016627883167708163 0 0 0
2429 1 3100.0 7.009858146648669e-05 0.014632804701401178 0.0010165861162632099 0.0179021872544599 0 0 0
2430 1 3100.0 5.20947513392516e-05 0.007300930330175857 0.003841859426525144 0.0032347778836280252 0 0 0
2431 1 3100.0 0.00027668547931945916 0.017019533208034756 0.0009876627201536926 0.017418893406161776 0 0 0
2432 1 3100.0 7.372004000377847e-05 0.017263997318997925 0.0053497805980396345 0.007133666968287739 0 0 0
2433 1 3100.0 1.6208929114648463e-05 0.00837647146502663 0.00612724378963774 0.006219857088507475 0 0 0
2434 1 3100.0 7.827790972087317e-06 0.012668445386172964 0.008536012197886033 2.9915839505820784e-05 0 0 0
2435 1 3100.0 4.172755116577702e-05 0.0027381402258499286 0.004342364949592846 0.0025682007466822816 0 0 0
2436 1 3100.0 0.00011977475247226421 0.0019469735763749535 0.014926133628068858 0.011144098359941379 0 0 0
2437 1 3100.0 2.4945537757488908e-05 0.008548836256361405 0.0037420851670446854 0.009915894001617123 0 0 0
2438 1 3100.0 2.456947737155749e-05 0.005821110584714411 0.002165981284364488 0.004421989569955904 0 0 0
2439 1 3100.0 0.00017743864310825467 0.014840266238865132 0.014301097307345328 0.01698042430218519 0 0 0
2440 1 3100.0 9.1918734729591e-05 0.018939653300079934 0.003269827562082501 0.016194329858948302 0 0 0
2441 1 3100.0 0.00010672692537492904 0.0186535925995043 0.0029406784356838227 0.001785241452841149 0 0 0
2442 2 7870.0 0.0003 0.001076553750142993 0.01700083344187237 0.0013650929475929067 0 0 0
2443 1 3100.0 0.00010609085715791762 0.015396840162077943 0.01538331732024732 0.016542179900367174 0 0 0
2444 1 3100.0 0.00017766513031870456 0.014138842938851388 0.017800302995944452 0.0054547670840791145 0 0 0
2445 1 3100.0 5.945953847474317e-05 0.01938554389351714 0.01822602737197434 0.0017892499552441955 0 0 0
2446 1 3100.0 1.458465447104579e-05 0.0015783995880385981 0.017191665474333265 0.008002481207244531 0 0 0
2447 1 3100.0 1.371494017832364e-05 0.018468329561845322 0.016113865009598077 0.002686693624232087 0 0 0
2448 1 3100.0 4e-05 0.011367841114815877 0.0031669408139537495 0.014952388077966255 0 0 0
2449 1 3100.0 5.8168114577393644e-05 0.008986266729918218 0.004453835838479349 0.008926057886076068 0 0 0
2450 1 3100.0 0.00019605675941183656 0.0019322219540730563 0.015007346046995636 0.019719481125697835 0 0 0
2451 1 3100.0 7.790332410784354e-05 0.009900628645526724 0.0035382969343530782 0.018436221619275373 0 0 0
2452 1 3100.0 8.790141862844175e-05 0.01888878452816411 0.008876974474466837 0.0026272846164209535 0 0 0
2453 1 3100.0 0.00011852944564270927 0.017194408339822727 0.004570390274118356 0.008375904710906802 0 0 0
2454 1 3100.0 7.985957387253773e-05 0.0057039156689055286 0.015787252136169192 0.008868336147757477 0 0 0
2455 1 3100.0 8.658308233681458e-05 0.018365273899568938 0.003380226858516253 0.012675306614227631 0 0 0
2456 1 3100.0 0.00011752996748408438 0.008379508197262995 0.007960397436792919 0.015207026325786466 0 0 0
2457 1 3100.0 4.246553115904912e-05 0.00391447554025661 0.003771007071815658 0.009755406203441671 0 0 0
2458 1 3100.0 0.0001247081874914182 0.017470928200372566 0.0123266331937726 0.019414703261874416 0 0 0
2459 1 3100.0 0.00010089832725124411 0.007947558857266826 0.0008078661576742133 0.008185426638976983 0 0 0
2460 1 3100.0 5.8558487421813574e-05 0.009306839609546284 0.017765794530821603 0.0009366215748291524 0 0 0
2461 1 3100.0 4.2797110110753594e-05 0.007630310967172941 0.00600450673995805 0.007888615281145398 0 0 0
2462 1 3100.0 7.2761289782427024e-06 0.013288106276995521 0.014948559855068967 0.012602137878125882 0 0 0
2463 1 3100.0 0.00010785589454093257 0.018933565338952185 0.01766725194836068 0.01810062600535193 0 0 0
2464 1 3100.0 2.9886125997188592e-05 0.01135511455392247 0.00022720828989652392 0.01908475293758018 0 0 0
2465 1 3100.0 6.219174094499499e-05 0.003430327825630036 0.01962144566901527 0.005615726915413869 0 0 0
2466 1 3100.0 0.00014501847980019324 0.013818594900820595 0.009984784937939075 0.014762866308677302 0 0 0
2467 1 3100.0 0.00010014225766629445 0.017539629990969547 0.0006753022580528 0.00015415328747507293 0 0 0
2468 1 3100.0 1.7179012655230978e-05 0.00960797150964446 0.011032279782118902 0.006372632888547739 0 0 0
2469 1 3100.0 1.8866764902884337e-05 0.012947703943891225 0.014998176336857745 0.01914171534570052 0 0 0
2470 1 3100.0 6.891581141582757e-05 0.012367956495965221 0.004309749313831183 0.01324062504165937 0 0 0
2471 1 3100.0 9.985421104295112e-05 0.0008345246302438445 0.018655449730792598 0.017181353636978907 0 0 0
2472 1 3100.0 4.319821699584337e-05 0.010948928088997592 0.01672073531721339 0.013703561440466472 0 0 0
2473 1 3100.0 4e-05 0.015549721340665684 0.019168631237951192 0.01861211165955142 0 0 0
2474 1 3100.0 0.00014348209416911096 0.017942618841296065 0.01597559420954179 0.005345830102260979 0 0 0
2475 1 3100.0 9.189723764539796e-06 0.0020337523867879487 0.017391035891939514 0.016619168578017443 0 0 0
2476 1 3100.0 0.00010042523184257834 0.0035662085202656842 0.006188618419422516 0.00010266484764530475 0 0 0
2477 1 3100.0 0.00013282496515023217 0.0056657047026979265 0.01097828667480712 0.01581662113932394 0 0 0
2478 2 7870.0 0.0003 0.018660980154181626 0.019502346013723387 0.013957027073352939 0 0 0
2479 1 3100.0 0.0001386757963086488 0.003027987169947195 0.0077060912559666975 0.0024697373361809364 0 0 0
2480 1 3100.0 2.4090550732267534e-05 0.011584201292851716 0.011147930840497018 0.0029858587608249925 0 0 0
2481 1 3100.0 0.00013554997761471672 0.009993249402008466 0.008617516362675545 0.012102481713920294 0 0 0
2482 1 3100.0 0.0002538467848100035 0.012208457067074146 0.0037038081276015745 0.010750523319104604 0 0 0
2483 1 3100.0 9.601740144031786e-06 0.006712028348113864 0.0023530533900198245 0.0033510387449701426 0 0 0
2484 1 3100.0 1.5432127218209265e-05 0.004909938950472659 0.0010355094687728263 0.0026532437185442827 0 0 0
2485 1 3100.0 0.00014106030853521998 0.0018528391440721663 0.003598678448018001 0.003194786480690713 0 0 0
2486 1 3100.0 0.00010898046459562681 0.004895218667724712 0.0022569053783076548 0.0002562360046104309 0 0 0
2487 1 3100.0 1.808325412830282e-05 0.012449421629637395 0.004774578158967972 0.019697084769896987 0 0 0
2488 1 3100.0 4.259462376715743e-05 0.0037941319342671338 0.0009809665885751279 0.0032460481447487617 0 0 0
2489 1 3100.0 9.654612451044618e-05 0.01581854315913796 0.004937600229324268 0.013529816091741339 0 0 0
2490 2 7870.0 0.0003 0.01505385703383509 0.008724249512546325 0.008158884841440655 0 0 0
2491 1 3100.0 0.0001192562612261443 0.005294743774442363 0.009156731719912775 0.00990468584141057 0 0 0
2492 1 3100.0 3e-05 0.0025037484071067056 0.0015292931837307697 0.0009629873951752885 0 0 0
2493 1 3100.0 0.00022013293656267878 0.014760203813863374 0.009186531144601585 0.0043043191474359055 0 0 0
2494 1 3100.0 6.078767932314574e-06 0.011237560768945734 0.00032422901010693513 0.014281241778086083 0 0 0
2495 1 3100.0 1.0378399863765388e-05 0.015193835284520452 0.016143331922158506 0.010273341089433641 0 0 0
2496 1 3100.0 4.89619781515345e-05 0.0048574018484161445 0.0012279892655982015 0.01731886903537538 0 0 0
2497 1 3100.0 1.5152483495424713e-05 0.016272206303877323 0.0198234349971152 0.0029878845092189774 0 0 0
2498 1 3100.0 6.72945941625236e-05 0.019378891221357792 0.011226018350939794 0.0071662642556181355 0 0 0
2499 1 3100.0 0.00015955116673277206 0.014584096166022005 0.012150819729671393 0.00859773791657821 0 0 0
2500 1 3100.0 9.179068036242181e-05 0.0033984978623192623 0.014413834598102596 0.015760265257091503 0 0 0
2501 1 3100.0 0.0001282282546535896 0.010037058717862046 0.008799156543403026 0.005205819944959138 0 0 0
2502 1 3100.0 6.590743859173398e-05 0.014580054979105802 0.007406833609478367 0.013741615849381453 0 0 0
2503 1 3100.0 0.00014466239035459364 0.007500632911424161 0.005343230902240037 0.006644735867935426 0 0 0
2504 1 3100.0 9.434848743358958e-06 0.003797959666320574 0.0011015048513045712 0.008642760391750784 0 0 0
2505 1 3100.0 1.4081907401734578e-05 0.013105230638843422 0.012106427635485782 0.003776924417317281 0 0 0
2506 1 3100.0 6.388157732784315e-05 0.015742580755790877 0.010613168715014158 0.013398554506005056 0 0 0
2507 1 3100.0 0.00021002402397912918 0.008569256116947888 0.018743759887408378 0.006262952645258834 0 0 0
2508 1 3100.0 0.00010396741508474924 0.017190168784650944 0.018907705049180983 0.004427236677482306 0 0 0
2509 1 3100.0 3e-05 0.010726917600205228 0.011328099404638067 0.013764727575790003 0 0 0
2510 1 3100.0 0.00010622137595970807 0.018563961588606886 0.0076395857808163724 0.012065231261799338 0 0 0
2511 1 3100.0 3e-05 0.0040600827590471155 0.002671099160319827 0.0005907633380299152 0 0 0
2512 1 3100.0 2.48325718676708e-05 0.018412833992054716 0.003923886990981178 0.013235526700747752 0 0 0
2513 1 3100.0 0.00015000795430396743 0.01962921195308121 0.013627199555838153 0.0174900665869455 0 0 0
2514 1 3100.0 7.671968674842318e-05 0.008528067664806831 0.014384519293710993 0.012907076221878444 0 0 0
2515 1 3100.0 7.371149475940413e-05 0.004467043395515199 0.0031378948050144657 0.009591979949903443 0 0 0
2516 1 3100.0 0.00013152233065750197 0.009057381267450253 0.018667863727254846 0.01979341368268338 0 0 0
2517 1 3100.0 7.999543369394937e-06 0.006618091972953995 0.008733040975133747 0.016146641413608453 0 0 0
2518 1 3100.0 4e-05 0.00874918087013971 0.013118714409512481 0.015496658364478168 0 0 0
2519 1 3100.0 1.5779200255872448e-05 0.007867258688219981 0.0003600497755831162 0.016086574467941383 0 0 0
2520 1 3100.0 7.600403832452065e-05 0.006160657206510566 0.011843023226276495 0.01581819525170001 0 0 0
2521 1 3100.0 6.063579732721437e-05 0.016990953346043922 0.017758286833351917 0.010453204806874459 0 0 0
2522 1 3100.0 0.00012449688712208972 0.005050667835044924 0.014800204637545484 0.010542555104001611 0 0 0
2523 1 3100.0 7.241228102699101e-06 0.0010274967829952766 0.018088707157048124 0.016768400614477152 0 0 0
2524 1 3100.0 2.0546591735955326e-05 0.01842564506720044 0.005198344348842992 0.008499836659026781 0 0 0
2525 1 3100.0 7.893499095772178e-05 0.006091375290438606 0.0152038494781106 0.01916115619566278 0 0 0
2526 1 3100.0 4.0929417863161994e-05 0.013078986933063327 0.010784107304265605 0.014257990312206138 0 0 0
2527 1 3100.0 9.772902085943029e-06 0.00571788888310659 0.0197926950462713 0.0016651833369278404 0 0 0
2528 1 3100.0 1.0343728225257686e-05 0.007038426835936696 0.01760882068837473 0.010621433695601592 0 0 0
2529 1 3100.0 0.00020722746694311255 0.007567526024611446 0.006441952916499212 0.014466621764742909 0 0 0
2530 1 3100.0 6.844868842352873e-05 0.003748626523191838 0.007194626599322892 0.0004479277831159913 0 0 0
2531 1 3100.0 0.0001094318594434914 0.008802690601497043 0.010994417569384988 0.005005201640443006 0 0 0
2532 1 3100.0 0.00012288148663831616 0.012983089139182445 0.006105056408270245 0.018824765609060858 0 0 0
2533 1 3100.0 9.520355062044815e-05 0.0019606884442729816 0.015931914598042548 0.002694293846067306 0 0 0
2534 1 3100.0 0.00010109628437384834 0.009505701920380565 0.010346802815281622 0.009558919467762968 0 0 0
2535 1 3100.0 4.068734890419641e-05 0.017478834691530522 0.008619730848810564 0.019507177842356966 0 0 0
2536 1 3100.0 9.758699202108793e-06 0.014212464038782138 0.011055376448481117 0.006532173647730545 0 0 0
2537 1 3100.0 9.370251835152153e-05 0.016663725299250146 0.008168412750411708 0.01562903548065627 0 0 0
2538 1 3100.0 1.0948535442506936e-05 0.0020079859909231997 0.018447991269478763 0.006433603673508637 0 0 0
2539 1 3100.0 1.9319730228800278e-05 0.019614695057045727 0.01173418361227509 0.018704174747614176 0 0 0
2540 1 3100.0 4.12735180383896e-05 0.0032896826092877617 0.005678268712033918 0.002042646252696454 0 0 0
2541 1 3100.0 0.0001630084376889246 0.014428021312953477 0.0018267981666267245 0.014732866331268168 0 0 0
2542 1 3100.0 8.804695239653203e-05 0.01779433130023143 0.014026960805018343 0.01965891687596939 0 0 0
2543 1 3100.0 1.0389062807387316e-05 0.00984590267363918 0.006606734016913991 0.01409480508663839 0 0 0
2544 1 3100.0 0.00016428490142233868 0.005503805809821339 0.005792583590839067 0.007750908849652096 0 0 0
2545 1 3100.0 0.00015459512179341237 0.012837580034048541 0.0011721507796737432 0.015145683483737316 0 0 0
2546 1 3100.0 0.00015866821875322795 0.014217249183294355 0.010308249983138555 0.017782800740921503 0 0 0
2547 1 3100.0 9.7984743920758e-05 0.006908067892290444 0.0037965456880987634 0.014681035800225702 0 0 0
2548 1 3100.0 5.285194434094191e-05 0.0035240648160876353 0.015990127365484535 0.008975589751089457 0 0 0
2549 1 3100.0 3e-05 0.007929689584246457 0.013327159788972177 0.004518454180917558 0 0 0
2550 1 3100.0 8.31226330930146e-05 0.013004380758393518 0.0036672123169615213 0.014418749502402867 0 0 0
2551 1 3100.0 0.0001058809125527952 0.010145318568845253 0.003220315899270674 0.014344185389839545 0 0 0
2552 1 3100.0 9.1083374378758e-05 0.010414343298473292 0.015327299275582481 0.0030727183606816077 0 0 0
2553 1 3100.0 2.030265931209822e-05 0.013147957539626763 0.007729643776920168 0.005542474729114553 0 0 0
2554 1 3100.0 6.230958019721341e-05 0.0022456267505748767 0.013146093085073144 0.005076545949622339 0 0 0
2555 1 3100.0 0.00012617769357289936 0.013748161658072706 0.005370365949331408 0.01490263988571247 0 0 0
2556 1 3100.0 1.80828935550112e-05 0.014571026181248288 0.0031395717375306783 0.011788729403229807 0 0 0
2557 1 3100.0 4.5578864250124575e-06 0.004744183830071221 0.0021505610242245486 0.009101560343568918 0 0 0
2558 1 3100.0 4.3952581791914965e-06 0.0068899534922652805 0.01731973341232592 0.014307377382310563 0 0 0
2559 1 3100.0 6.98493134552435e-05 0.011588406512105099 0.005274545101339882 0.0015308129257127026 0 0 0
2560 1 3100.0 0.0001125556770251929 0.011556683475569986 0.010099587170865036 0.005165789318759411 0 0 0
2561 1 3100.0 1.6247776047611696e-05 0.012711701543714647 0.007203652815655258 0.0019496182932652122 0 0 0
2562 1 3100.0 7.871651021505764e-06 0.004253462543131697 0.004248873932257965 0.01102647380108182 0 0 0
2563 1 3100.0 0.0001716041969203831 0.008798764833323475 0.002104543868785474 0.018780412032495322 0 0 0
2564 1 3100.0 9.029650906402214e-05 0.000518612257946608 0.0059116660127262214 0.01577481696881726 0 0 0
2565 1 3100.0 0.00015582899464567585 0.003262488299579523 0.0127751064629473 0.006022605062814516 0 0 0
2566 1 3100.0 2.9474124031507734e-05 0.019856098940401405 0.01134888771778268 0.010824209184699177 0 0 0
2567 1 3100.0 1.5442808944975014e-05 0.005424848687330925 0.004082648168889952 0.016931695518249842 0 0 0
2568 1 3100.0 0.00010597739260265589 0.011284392290589862 0.0025159843728569126 0.01733406620091905 0 0 0
2569 1 3100.0 0.00018429861347851896 0.014376302394579233 0.014310361144912609 0.008255251711616144 0 0 0
2570 1 3100.0 4e-05 0.019844956425775936 0.019217811812706518 0.007286853373400696 0 0 0
2571 1 3100.0 6.109211383296187e-05 0.006720699423199574 0.0017536688757323773 0.00206497758566544 0 0 0
2572 1 3100.0 0.00011540937579605476 0.01834937396276169 0.008046017208439305 0.01302935113392263 0 0 0
2573 1 3100.0 0.00018739103383980842 0.017482269719064525 0.012922064136952916 0.01847876492744048 0 0 0
2574 1 3100.0 7.692003519984394e-05 0.007565058206235221 0.012801796751524808 0.008981072444236106 0 0 0
2575 1 3100.0 8.205234574350938e-05 0.0013309658031475538 0.016425667636099674 0.008211400601942576 0 0 0
2576 1 3100.0 2.375316816908676e-05 0.005867065015888317 0.007592322058501734 0.004267602886532177 0 0 0
2577 1 3100.0 7.041762488404127e-05 0.01313658684544177 0.00739830132315647 0.00040787928880547497 0 0 0
2578 1 3100.0 0.0002489762108659538 0.00029878441024679494 0.016102127215013227 0.017963710898741603 0 0 0
2579 1 3100.0 6.720149046645797e-05 0.017761354315500525 0.01716795457174944 0.01503224869564564 0 0 0
2580 1 3100.0 0.00013781679965415905 0.00607500560745662 0.013271016505116848 0.009567255170621701 0 0 0
2581 1 3100.0 6.770175556378552e-05 0.003878380430193702 0.0012082284927944443 0.011059871018372913 0 0 0
2582 1 3100.0 8.965804806018592e-05 0.015952326779288126 0.011896551302422132 0.017568722336794112 0 0 0
2583 1 3100.0 0.0001836293551109996 0.015199367281047588 0.0017222816772225085 0.003459684537462816 0 0 0
2584 1 3100.0 2.056346290572699e-05 0.006907363076348608 0.016854728350935683 0.012336756092355666 0 0 0
2585 1 3100.0 0.00023874316461756361 0.010385758620465148 0.00203175753639376 0.008621834691953021 0 0 0
2586 1 3100.0 1.3763139133640913e-05 0.013378363567225169 0.017385103747389007 0.007409945285697797 0 0 0
2587 1 3100.0 0.00016470339677367258 0.006223827464728163 0.012135521034329022 0.0150031507753452 0 0 0
2588 1 3100.0 7.750662997977332e-05 0.0005232681197472761 0.002909824007366415 0.013654523744555613 0 0 0
2589 1 3100.0 8.752410402601455e-05 0.019131505325168396 0.009891827815206346 0.002555858191571434 0 0 0
2590 1 3100.0 9.027381126885017e-05 0.0022943165055303917 0.004329840436635857 0.019486671140219552 0 0 0
2591 1 3100.0 1.4438889273683953e-05 0.006453779543833467 0.0005024729533550749 0.014462722867908158 0 0 0
2592 1 3100.0 2.313933890487427e-05 0.001804397080782264 0.014330106158853254 0.0006417583212632521 0 0 0
2593 1 3100.0 5.697892739306063e-05 0.014516220381898523 0.011171812654001901 0.007042885752446793 0 0 0
2594 1 3100.0 4e-05 0.019457156058628577 0.01694964140434995 0.002802453311197235 0 0 0
2595 1 3100.0 1.4387541060492297e-05 0.001223706243249949 0.016641172576323426 0.001444259550487384 0 0 0
2596 1 3100.0 0.00014985131353781453 0.008090817866043133 0.009034551424650742 0.011235101333011444 0 0 0
2597 1 3100.0 4.7149879069992355e-05 0.01625817559505626 0.006002489159458184 0.007715386964705079 0 0 0
2598 1 3100.0 7.867730817615694e-05 0.01930191592312034 0.009835101215061634 0.008779716956144316 0 0 0
2599 1 3100.0 5.358139346784955e-05 0.009058252632907509 0.0017056611025496591 0.017604724529101785 0 0 0
2600 1 3100.0 9.924006759854001e-05 0.00018079531953476175 0.0050166676148326 0.005115215467287208 0 0 0
2601 1 3100.0 8.39471917609157e-05 0.01623405792269136 0.019595649847801832 0.008536444239942695 0 0 0
2602 1 3100.0 1.0254562216545434e-05 0.003054313725733842 0.0054832082481185785 0.012002260356005564 0 0 0
2603 1 3100.0 8.72441353734875e-05 0.0005649491519542977 0.009428054891253115 0.01237169761649641 0 0 0
2604 1 3100.0 1.6054033043000237e-05 0.014122696873521726 0.01799205411171782 0.006390956621828099 0 0 0
2605 1 3100.0 6.816990963046071e-05 0.0031745680160676784 0.019044421074999204 0.006297848469130925 0 0 0
2606 1 3100.0 1.4182882938687559e-05 0.011339563247236282 0.006417658368373305 0.0010095796493670313 0 0 0
2607 1 3100.0 7.558717431548851e-05 0.007286430117013877 0.00037626003375837436 0.010762417063928956 0 0 0
2608 1 3100.0 7.096910497651063e-05 0.01720298713143404 0.013991465826045416 0.010837579784815822 0 0 0
2609 1 3100.0 0.00017869105934531585 0.009111450846831728 0.007681614239543552 0.004709119212108441 0 0 0
2610 1 3100.0 1.5591086210579403e-05 0.009519558586446859 0.009211291037228515 0.018983890419742654 0 0 0
2611 1 3100.0 5.816754335996313e-06 0.014410016572971578 0.005311574894274197 0.0006049568191892411 0 0 0
2612 1 3100.0 7.830200218906314e-05 0.002865688394677683 0.001477375613966462 0.01830449376065391 0 0 0
2613 1 3100.0 0.00014135610817155782 0.015230045341242114 0.0022437598365315616 0.00782561936588279 0 0 0
2614 1 3100.0 8.406261256130238e-06 0.019303936727419008 0.0021727980376634185 0.0052158267870355225 0 0 0
2615 1 3100.0 4e-05 0.011938007213304817 0.012215716836641766 0.01862895838599162 0 0 0
2616 1 3100.0 0.00011266918542438041 0.01286442578869591 0.008816789781859371 0.01814587032672099 0 0 0
2617 1 3100.0 5.958977622649091e-06 0.0043635125510842025 0.013838129050727547 0.009118942062191916 0 0 0
2618 1 3100.0 1.170167622565942e-05 0.0013144248314210965 0.005605816088431157 0.01178658696896927 0 0 0
2619 1 3100.0 0.0001923438005987505 0.010592522372944928 0.013158871113918608 0.0033742133133169783 0 0 0
2620 1 3100.0 8.254529438769543e-05 0.015764078631363275 0.015230309232347979 0.010111582425820066 0 0 0
2621 1 3100.0 2.1873322488233273e-05 0.012293376554206292 0.008178473107291917 0.006823060004532903 0 0 0
2622 1 3100.0 8.670728577497704e-05 0.0007314858356092966 0.01755116637818104 0.006325691468592664 0 0 0
2623 1 3100.0 1.8012946550763845e-05 0.016474462183143006 0.016271477425840127 0.002824539093447919 0 0 0
2624 1 3100.0 1.245213671291801e-05 0.008596972071836184 0.010934751752638298 0.0037099758737843894 0 0 0
2625 1 3100.0 5.313942828781168e-05 0.014590694270985671 0.014132692362691015 0.013824012363913441 0 0 0
2626 1 3100.0 9.844341802763314e-05 0.012040319907113526 0.01280946557395529 0.019762851164629492 0 0 0
2627 1 3100.0 5.250557735724473e-05 0.015435344879652532 0.006970702500153089 0.01887955988453538 0 0 0
2628 1 3100.0 0.00012695605374851032 0.016927104925196012 0.006264752000190525 0.0025383566881660878 0 0 0
2629 1 3100.0 8.748341404124816e-05 0.017342266774392438 0.005671123197774214 0.016592034552722967 0 0 0
2630 1 3100.0 9.453708136213679e-05 0.003062241083935742 0.002112551182836576 0.00473363846699835 0 0 0
2631 1 3100.0 2.3658839439023158e-05 0.0011133536304326985 0.018646739473747655 0.012927631308950608 0 0 0
2632 1 3100.0 5.699039463743687e-05 0.01119774774172442 0.01779333437236849 0.007145289899621999 0 0 0
2633 1 3100.0 0.00012648716448290754 0.014022514892174875 0.017139713300720345 0.0012244672306084836 0 0 0
2634 1 3100.0 9.831048718209053e-05 0.014209154996476603 0.00887402846955973 0.0033515317043439114 0 0 0
2635 1 3100.0 0.00011444101696454672 0.017716542443274894 0.012226782883257745 0.010781769240153522 0 0 0
2636 1 3100.0 1.7346597078604992e-05 0.014234909226466226 0.005474561695811036 3.853881693140036e-05 0 0 0
2637 1 3100.0 1.569427149665881e-05 0.01848719776600303 0.010647421501706068 0.007648388770437405 0 0 0
2638 1 3100.0 7.069868659894407e-05 0.008468642443568392 0.013513400202363818 0.0031482021660778656 0 0 0
2639 1 3100.0 2.8951179627473497e-05 0.008595446070911856 0.011322630213452837 0.0067337202963053105 0 0 0
2640 1 3100.0 8.093738948066552e-05 0.0024378898616430004 0.018364070257086872 0.014785650333567017 0 0 0
2641 1 3100.0 6.302504710469245e-05 0.010657253284026296 0.0013687722151566304 0.008073352392621273 0 0 0
2642 1 3100.0 0.00012184673642588398 0.011506080573696578 0.00763575727243567 0.013426106593378222 0 0 0
2643 1 3100.0 0.00012635340235484551 0.00693362298589748 0.01019955020778493 0.004090269632460647 0 0 0
2644 1 3100.0 0.00013536719168797092 0.005582286399424037 0.018595132519909463 0.00659630935571903 0 0 0
2645 1 3100.0 0.00011994104048142905 0.0048216831853844485 0.011794743610792276 0.010654958034882927 0 0 0
2646 1 3100.0 4.3740278204121515e-06 0.004330587621785287 0.002318656194576056 0.005003562435139971 0 0 0
2647 1 3100.0 9.990437085883847e-06 0.017129486868580755 0.007586255312618961 0.0023181414045782968 0 0 0
2648 1 3100.0 3e-05 0.009650681431050169 0.0047945894049031485 0.006823679341473644 0 0 0
2649 1 3100.0 4.841245967362506e-06 0.015919164887580432 0.0073784081567545194 0.008544744175089032 0 0 0
2650 1 3100.0 0.00016458525376824976 0.015192671470809457 0.015919093997973876 0.0006168813880414836 0 0 0
2651 1 3100.0 3e-05 0.012539822930408109 0.0033242682485877147 0.012050924019092179 0 0 0
2652 1 3100.0 4.1189631719440526e-05 0.017671518071873317 0.004207450315023002 0.01834235824281024 0 0 0
2653 1 3100.0 7.35162295956596e-05 0.014045707542986487 0.01858438258750719 0.011005979324738525 0 0 0
2654 1 3100.0 8.632778612248445e-05 0.006154885021445266 0.006663938225101519 0.011351183366918129 0 0 0
2655 1 3100.0 1.0647898621285653e-05 0.0025826355270690904 0.00497556052665162 0.0006554513567210151 0 0 0
2656 1 3100.0 0.0001246356108037963 0.013985791233337735 0.007571189720735346 0.012213854575737797 0 0 0
2657 1 3100.0 3e-05 0.014508362881110988 0.01777008124986024 0.011317768871793378 0 0 0
2658 1 3100.0 4.029715659254461e-06 0.018976580330079613 0.002756782933560177 0.0009194178888277282 0 0 0
2659 1 3100.0 7.261886632700159e-05 0.0009534272093250603 0.004758667988110518 0.010409926377437232 0 0 0
2660 1 3100.0 5.7204431212995605e-05 0.007741610314795752 0.016011693595569455 0.006480796179982939 0 0 0
2661 1 3100.0 0.00013582122493973071 0.01923662922954758 0.004250554985835244 0.016668662859848835 0 0 0
2662 1 3100.0 6.567525444877819e-05 0.01726157643987447 0.013760173799470591 0.014501825918594367 0 0 0
2663 1 3100.0 7.789532070459992e-05 0.00020402269121340942 0.002284818693049082 0.014721494253529992 0 0 0
2664 1 3100.0 7.729085962365875e-05 0.010417612129816239 0.019707291288031985 0.009557799508309227 0 0 0
2665 1 3100.0 6.077024253320062e-05 0.010497018198982402 0.015502275907781079 0.01698263150968309 0 0 0
2666 1 3100.0 9.062067942339116e-06 0.017599715450234407 0.003201476106055443 0.012727622299233098 0 0 0
2667 1 3100.0 0.00011796964348267801 0.016639702284087433 0.003174071309091593 0.008766953502049177 0 0 0
2668 1 3100.0 8.965570721236165e-06 0.019082275709154835 0.002197141193342455 0.006438852498541206 0 0 0
2669 1 3100.0 4.832047022099467e-05 0.01110825656648312 0.0011070902227974578 0.014743924792187139 0 0 0
2670 1 3100.0 9.103386766658257e-05 0.011148186665827153 0.005937319672035371 0.005261591188951388 0 0 0
2671 1 3100.0 1.2941065606017054e-05 0.01790711983251388 0.008875894929687982 0.009270633008737105 0 0 0
2672 1 3100.0 2.288030309673803e-05 0.009628189089746643 0.013962531932713284 0.009146385890444007 0 0 0
2673 1 3100.0 7.825638709893692e-05 0.009196182004971486 0.004673732028827392 0.005526022620909335 0 0 0
2674 1 3100.0 0.0002868329016106624 0.00913106402888035 0.01375796695962105 0.001394843839943902 0 0 0
2675 1 3100.0 5.7390238995551076e-05 0.011446104457254535 0.010379596570951881 0.008236336158150349 0 0 0
2676 1 3100.0 0.0001009296645234638 0.01708018868368072 0.017216812473070414 0.004785448497846813 0 0 0
2677 1 3100.0 1.587096609443226e-05 0.014313751878505915 0.011021457802406645 0.012810376399484178 0 0 0
2678 1 3100.0 1.359950133200071e-05 0.001739095796157524 0.00022758558709060138 0.013931317503014327 0 0 0
2679 1 3100.0 0.00010506191581185977 0.015359062730839639 0.00966558947085145 0.016607274819762343 0 0 0
2680 1 3100.0 0.00017107110667822882 0.009713184786791633 0.010302059304067794 0.008399411547450093 0 0 0
2681 1 3100.0 9.50326379766996e-06 0.016719910919653577 0.016709981493158742 0.016061667928372145 0 0 0
2682 2 7870.0 0.0003 0.01538289961679964 0.015164100273122956 0.009954368214845008 0 0 0
2683 1 3100.0 0.0001415303217120335 0.005801650767607552 0.012998232572188472 0.006226806890958622 0 0 0
2684 1 3100.0 4.218725692706e-06 0.010057943980134768 0.0011074433569600423 0.01624407045868468 0 0 0
2685 1 3100.0 5.643496304952013e-05 0.013728024809774525 0.014742861436924631 0.007343018847352998 0 0 0
2686 1 3100.0 0.0001260660592454909 0.010592202777380608 0.018087444147936466 0.003856915703211471 0 0 0
2687 1 3100.0 0.00010676141630119916 0.01815820131277865 0.019433546454082563 0.012142239649379397 0 0 0
2688 1 3100.0 5.882508015149335e-05 0.008892118146262512 0.008593720002771095 0.0190422140342261 0 0 0
2689 1 3100.0 0.00017517792821076684 0.0015474278484909172 0.0016161486885613405 0.011741773453491155 0 0 0
2690 1 3100.0 5.904238030621175e-05 0.00533803676390939 0.01152614102434285 0.0062609093011399275 0 0 0
2691 1 3100.0 5.144966542552874e-05 0.0025999184313859262 0.017253507676414422 0.0011959590339754612 0 0 0
2692 1 3100.0 8.329046936262952e-06 0.009581626457932169 0.014305178331939124 0.0018573410323686926 0 0 0
2693 1 3100.0 1.3257723869592e-05 0.012438685619162336 0.00014923271288631921 0.01566019487007358 0 0 0
2694 1 3100.0 5.072061159787145e-05 0.014858356591207947 0.0032175714704332325 0.01691104077049252 0 0 0
2695 1 3100.0 1.7637914947706822e-05 0.013490236063694932 0.01702485761913541 0.01851077200496225 0 0 0
2696 1 3100.0 0.00014568639881547065 0.013452032161154759 0.012020344472935287 0.009428865286239723 0 0 0
2697 1 3100.0 0.000164525951590238 0.0011132530126625774 0.017208684361859673 0.017987055592751995 0 0 0
2698 1 3100.0 0.00014709584454245116 0.01440791535949023 0.006266448667650217 0.0131464068951208 0 0 0
2699 1 3100.0 0.0001091198120337963 0.012717673163249961 0.012462085007627308 0.013203516021327041 0 0 0
2700 1 3100.0 0.00014875047231622366 0.009262898766110481 0.014309486990787042 0.01899866690752521 0 0 0
2701 1 3100.0 6.760811254690796e-05 0.007074486500916764 0.012999662090944697 0.00502866908904147 0 0 0
2702 1 3100.0 2.5483677161678368e-05 0.006807456788498112 0.010212312637985811 0.012789017109712801 0 0 0
2703 1 3100.0 0.00010804515236109191 0.006251683481934216 0.0012593188516225936 0.008921275634315069 0 0 0
2704 1 3100.0 3.0648925108485405e-06 0.010001311989377882 0.0023652824495851285 0.0002518595366740144 0 0 0
2705 1 3100.0 6.248745222884671e-06 0.001209160235280977 0.019442373688785937 0.005829545064182792 0 0 0
2706 1 3100.0 6.863815018466022e-06 0.0022817943201564866 0.006022400068224515 0.0156973337834168 0 0 0
2707 1 3100.0 1.4385356803045135e-05 0.004767874865280179 0.017134451037194468 0.006347285663853816 0 0 0
2708 1 3100.0 0.00013401562007344002 0.008576464553877602 0.007060106828675266 0.014960144739608827 0 0 0
2709 1 3100.0 0.0002545235455959 0.008373896711554786 0.019552309922792666 0.002857468067115929 0 0 0
2710 1 3100.0 9.44796622642367e-05 0.0005597873331948164 0.009685140282056545 0.013430196566881653 0 0 0
2711 1 3100.0 4.2428418719926585e-05 0.004632502164849168 0.007143262917877164 0.014525485869779555 0 0 0
2712 1 3100.0 3.936939732918533e-06 0.006187648427627325 0.0037869036736562995 0.005044553019696026 0 0 0
2713 1 3100.0 0.00023736658986891985 0.007507671256644638 0.006855784903048131 0.01110459859325813 0 0 0
2714 1 3100.0 0.00017364453879659887 0.01814633289735055 0.01487107196590838 0.015692704355563913 0 0 0
2715 1 3100.0 9.37752933213468e-05 0.015492023776519455 0.0136172996380949 0.019744087566439732 0 0 0
2716 1 3100.0 7.044659771356846e-06 0.003832778773402584 0.016094795739481558 0.005413134247067949 0 0 0
2717 1 3100.0 2.639480654171232e-05 0.01956982376562526 0.015845506582918466 0.014134573605584105 0 0 0
2718 1 3100.0 9.059540996839775e-06 0.005602560077854447 0.018490508972349825 0.007045302206099501 0 0 0
2719 1 3100.0 1.668977103703101e-05 0.003891595519464513 0.015405698401132093 0.017675164430178504 0 0 0
2720 1 3100.0 6.57137368975202e-05 0.00450314282844447 0.006622512599339256 0.013477391143801311 0 0 0
2721 1 3100.0 7.270683266261436e-05 0.019008484303330957 0.014867583834972078 0.011224725003006248 0 0 0
2722 1 3100.0 1.7551929982129047e-05 0.012879238084584242 0.0028053457062656093 0.019469063533031798 0 0 0
2723 1 3100.0 9.905218324069538e-06 0.003293108636786003 0.007803496477557706 0.016076017539484275 0 0 0
2724 1 3100.0 6.089250463583366e-05 0.004139357813035828 0.0013038826222030633 0.01862820146726343 0 0 0
2725 1 3100.0 9.830052810368912e-06 0.002739486517688763 0.019280899944249592 0.011016455434804853 0 0 0
2726 1 3100.0 7.838503667982468e-05 0.0008749783885272236 0.0064451303806697165 0.0019775565974260363 0 0 0
2727 1 3100.0 6.727973093860336e-05 0.0001917686388096615 0.003850388194601293 0.0005502922845962827 0 0 0
2728 1 3100.0 3e-05 0.009518020823381062 0.015935742301211416 0.00805689963689315 0 0 0
2729 1 3100.0 7.599586338379434e-06 0.01448023522370771 0.009661083640508899 0.019319416981754 0 0 0
2730 1 3100.0 9.528091412381216e-05 0.01733690724632404 0.009353047292828874 0.0010127011811189893 0 0 0
2731 1 3100.0 0.00012109984473769998 0.003202054631304828 0.017503670300938166 0.004763420546896178 0 0 0
2732 1 3100.0 7.4889087789329745e-06 0.009106299931011533 0.011103228986863414 0.0021522122017181384 0 0 0
2733 1 3100.0 4e-05 0.010007094981194923 0.016272273662285563 0.004666639139462307 0 0 0
2734 1 3100.0 0.00011771814320352957 0.01938795892138902 0.004095928293362325 0.00016887429587440707 0 0 0
2735 1 3100.0 6.00990410907518e-05 0.010089984385814437 0.016186516678292746 0.013461424502828397 0 0 0
2736 1 3100.0 1.4065260180536771e-05 0.006561271729838695 0.010065287034899745 0.005433284048488165 0 0 0
2737 1 3100.0 8.052238345907016e-05 0.01587303311857594 0.01151906338934387 0.0023993834200760253 0 0 0
2738 1 3100.0 0.00010710854835408685 0.008345259653766713 0.019405222991813555 0.007813915086290701 0 0 0
2739 1 3100.0 6.493692775640599e-05 0.013258219891678157 0.01922805535233286 0.00626399974814096 0 0 0
2740 1 3100.0 6.697835302857151e-05 0.01522833203367822 0.009835039680125314 0.01508607486656567 0 0 0
2741 1 3100.0 0.00012121540831309624 0.019203029253316642 0.000812488509976285 0.007876519746156536 0 0 0
2742 1 3100.0 7.659889114255626e-05 0.008064101604433237 0.014539811429800629 0.011628737093181383 0 0 0
2743 1 3100.0 0.00010492030397406168 0.014371564902916408 0.0195330461509243 0.019185734668327133 0 0 0
2744 1 3100.0 1.0331394068054455e-05 0.005225119070319218 0.010890847639429616 0.00905464722316405 0 0 0
2745 1 3100.0 0.00015766549933020593 0.01927196025575345 0.0012417314220691913 0.013554467129334887 0 0 0
2746 1 3100.0 0.0001517433191501434 0.0007975349289015901 0.01802477742035985 0.0015162876375756174 0 0 0
2747 1 3100.0 9.129986855768508e-05 0.0026037622598643045 0.011238744304316173 0.006803819953426682 0 0 0
2748 1 3100.0 7.802021209563171e-05 0.01769995173918728 0.00021888270647812098 0.018431900665604756 0 0 0
2749 1 3100.0 9.684592968947551e-05 0.0016034380800721987 0.014840979082930285 0.013972989332773224 0 0 0
2750 1 3100.0 9.364870588267085e-05 0.017139425433515137 0.003875681102558336 0.019772823057627217 0 0 0
2751 1 3100.0 0.00018107819335717957 0.003469217661515598 0.016826272174498915 0.009147074259035553 0 0 0
2752 1 3100.0 6.030747532151721e-05 0.01654320059682945 0.01819811063895351 0.013832855383766392 0 0 0
2753 1 3100.0 2.6035810542580225e-05 0.00015632247807586798 0.017016381428926284 0.004760723721554283 0 0 0
2754 1 3100.0 4e-05 0.012012885276187392 0.009364885290260987 0.019667717413709564 0 0 0
2755 1 3100.0 4e-05 0.008241659996204142 0.018987750978220603 0.005864974709604893 0 0 0
2756 1 3100.0 0.00021202340830387705 0.013934559494782733 0.0065331368884640785 0.00727518982363319 0 0 0
2757 1 3100.0 6.71419337603591e-05 0.014152013243463758 0.017626870564998513 0.001100436304287182 0 0 0
2758 1 3100.0 8.77420547026407e-06 0.011638323811673443 0.01782743344530807 0.01046992944913985 0 0 0
2759 1 3100.0 0.00022332124972174237 0.00985288816316447 0.016579415286476582 0.01518614835405856 0 0 0
2760 1 3100.0 7.233103157874111e-05 0.005865336105731625 0.0037250509994871833 0.006755101498032454 0 0 0
2761 1 3100.0 9.152096833064302e-05 0.009199366864519254 0.019256746592516753 0.004546309519877471 0 0 0
2762 1 3100.0 5.849137699680871e-05 0.016373463293325074 0.003913936982932872 0.00191447718954134 0 0 0
2763 1 3100.0 1.7600174442195437e-05 0.0033675006256341147 0.015112097879732951 0.002992869791047795 0 0 0
2764 1 3100.0 9.139558235821545e-06 0.014569889320358556 0.011363004074983826 0.007108881261068052 0 0 0
2765 1 3100.0 0.0001661038345816568 0.0021301090870465846 0.010051640611104196 0.005064458534745713 0 0 0
2766 1 3100.0 1.737251790281787e-05 0.007975882288091428 0.008302972587658476 0.01586632949320595 0 0 0
2767 1 3100.0 1.98130916826243e-05 0.012792068754579687 0.005872772110805736 0.014510557392912985 0 0 0
2768 1 3100.0 1.4889354798227011e-05 0.0013053415388529796 0.011959581622981915 0.0019055783421832425 0 0 0
2769 1 3100.0 9.269561691904156e-05 0.007970380449008411 0.01432445000409465 0.010038795104347189 0 0 0
2770 1 3100.0 6.565479530032628e-05 0.018772717432908627 0.010285381551719439 0.011923559904221066 0 0 0
2771 1 3100.0 1.0286667209138415e-05 0.01152590619339539 0.017435663041889395 0.005043611195504784 0 0 0
2772 1 3100.0 0.00010100175729502002 0.017018364858449667 0.005538424243821553 0.004005459972604119 0 0 0
2773 1 3100.0 7.103257666220022e-05 0.010910707517943624 0.019668977554875632 0.0011689553655500871 0 0 0
2774 1 3100.0 3.215067743603473e-06 0.011007363781979463 0.009562374867013135 0.019298200672001258 0 0 0
2775 1 3100.0 0.000126913299852848 0.010581655803907538 0.019435968593600132 0.017962044995952862 0 0 0
2776 1 3100.0 6.941775244268039e-05 0.016450081454413817 0.014522542452755926 0.010898406676300917 0 0 0
2777 1 3100.0 7.917314901520612e-05 0.008029808200422593 0.013096045311493998 0.011321400586482034 0 0 0
2778 1 3100.0 9.449299587985664e-05 0.001902513861740002 0.006227088680333154 0.0022033381548449216 0 0 0
2779 1 3100.0 1.0483248275761528e-05 0.011572841411821527 0.01237096888926866 0.003631693217269992 0 0 0
2780 1 3100.0 6.097099275643911e-05 0.004985171204197981 0.0061498600899455485 0.0014300288597749098 0 0 0
2781 1 3100.0 5.457389109645199e-05 0.00741892730567333 0.002456242557622805 0.015447929535676625 0 0 0
2782 1 3100.0 5.207196654726945e-05 0.01885886867129746 0.0017017124345788984 0.0018561556112179735 0 0 0
2783 1 3100.0 8.680079521525036e-05 0.01166252953507192 0.017792834070273572 0.019085459554393384 0 0 0
2784 1 3100.0 0.000132725631506602 0.0049696095700476565 0.0023695284973892687 0.0011639230456844843 0 0 0
2785 1 3100.0 6.370347231343104e-05 0.011271753970084916 0.018823849438057122 0.005273863354764574 0 0 0
2786 1 3100.0 9.090325076120131e-05 0.018149116821221924 0.012683397151674231 0.008013267276322936 0 0 0
2787 1 3100.0 5.094634079912561e-05 0.009158727793638506 0.005056440871373146 0.013839550883245542 0 0 0
2788 1 3100.0 0.00011400395447580342 0.0198015933213325 0.014610638480216554 0.002204612201921074 0 0 0
2789 1 3100.0 7.935822206953124e-05 0.018483182458306935 0.017114538415412297 0.0075780012468592 0 0 0
2790 1 3100.0 6.328304867178397e-05 0.009146200808116728 0.01583111684607561 0.01245699809977583 0 0 0
2791 1 3100.0 5.9880857825e-05 0.008542108616980642 0.012949161284541127 0.006181723152935669 0 0 0
2792 1 3100.0 8.985463774096583e-05 0.018650295995200013 0.001631771366431776 0.0048253664054919015 0 0 0
2793 1 3100.0 8.417594259220265e-05 0.007866004762173084 0.0044917899959844715 0.011031670476655672 0 0 0
2794 1 3100.0 1.027437273954396e-05 0.011152478471335263 0.00041694536729124814 0.008414870015824581 0 0 0
2795 1 3100.0 6.074929943451193e-05 0.012618504913476828 0.01130781068002204 0.01662443836406796 0 0 0
2796 1 3100.0 6.849470908630653e-05 0.0034415307544025065 0.01559783288292303 0.012362657134440866 0 0 0
2797 1 3100.0 0.00018940877450318114 0.0075464169291329115 0.01775384746890982 0.008194360853589138 0 0 0
2798 1 3100.0 9.594237514439444e-05 0.016045941490799877 0.009545129209146077 0.007902644625043639 0 0 0
2799 2 7870.0 0.0003 0.0047317072246276385 0.004054341958743298 0.005383374030243417 0 0 0
2800 1 3100.0 6.70321004109035e-05 0.016230824473018657 0.011008053052671907 0.012590788144594153 0 0 0
2801 1 3100.0 5.621764992285017e-06 0.00021260741058228843 0.007982329302268698 0.018040771828614154 0 0 0
2802 1 3100.0 4.1782860953089075e-05 0.011017802952577671 0.0048471553976233315 0.011174694457194814 0 0 0
2803 1 3100.0 6.805417854492174e-05 0.0033475541096383656 0.018190936957520415 0.018745312307528555 0 0 0
2804 1 3100.0 8.122282445156506e-05 0.0025915652824072665 0.01095175841932711 0.01671435099793721 0 0 0
2805 1 3100.0 6.551778531840115e-05 0.011826685810246092 0.00021787768720259366 0.00272005334364409 0 0 0
2806 1 3100.0 5.246949122857993e-05 0.00928280716933222 0.00984783629663075 0.0052917258810267764 0 0 0
2807 1 3100.0 0.0001494376899694306 0.0066162676688837655 0.01772321099289228 0.013867346767621745 0 0 0
2808 1 3100.0 3.936796162805695e-06 0.011848974223399531 0.0033648661231387594 0.007923616711390056 0 0 0
2809 1 3100.0 7.901790658283495e-06 0.01821860621405913 0.015074470376014264 0.006095646027411645 0 0 0
2810 1 3100.0 0.00010693735378427488 0.01385124139699025 0.0004091080982262533 0.01827142732780236 0 0 0
2811 1 3100.0 1.3072397035661146e-05 0.018717840938617655 0.00891084697974095 0.0030316401561671915 0 0 0
2812 1 3100.0 4.80115487816506e-05 0.019765639531769078 0.0010826059458252204 0.006294024491290994 0 0 0
2813 1 3100.0 6.011376680269532e-05 0.017771447283421987 0.010621077149890669 0.0009216392393303301 0 0 0
2814 1 3100.0 8.493711350281198e-05 0.004903275990941439 0.011470621144223097 0.015933289157153297 0 0 0
2815 1 3100.0 5.127796792768552e-05 0.012345632823532003 0.0038897549228992146 0.012153343175726859 0 0 0
2816 1 3100.0 4.4460174702862645e-06 0.00513731785555978 0.004944046430009763 0.002206835397237442 0 0 0
2817 1 3100.0 0.00013238553836567772 0.018223787572169154 0.016335237403483877 0.016377167821530092 0 0 0
2818 1 3100.0 8.90723153161771e-06 0.014146460829780135 0.010400835063053384 0.0017386664862289198 0 0 0
2819 1 3100.0 0.00015937945044272044 0.012225876375132814 0.003836375303556333 0.013926632064416059 0 0 0
2820 1 3100.0 6.928978815912995e-05 0.008239436902865372 0.014118533990894891 0.01883089849644319 0 0 0
2821 1 3100.0 7.622062534811324e-05 0.01730278641988039 0.015418923492002344 0.00905710320676645 0 0 0
2822 1 3100.0 1.2488815803059602e-05 0.006517822814810267 0.009113918648486015 0.012202786586930917 0 0 0
2823 1 3100.0 6.913584401442176e-05 0.017593143968210396 0.008582092763655177 0.0033367610143782626 0 0 0
2824 1 3100.0 1.2712011512008435e-05 0.018385094796235943 0.014304961792985509 0.005945084009512618 0 0 0
2825 1 3100.0 4.724380817383603e-06 0.013550649011356438 0.01086340680238099 0.002101410974385372 0 0 0
2826 1 3100.0 5.4137414955966717e-05 0.011958747108474334 0.004350215632430099 0.0050032378075594115 0 0 0
2827 1 3100.0 5.687136205831728e-06 0.001493539769328901 0.019589984709307864 0.01733736717242059 0 0 0
2828 1 3100.0 0.00025878716845144904 0.003957365861653225 0.01170170350520545 0.006557844668957682 0 0 0
2829 1 3100.0 5.348224987643299e-05 0.010928557392648778 0.006704407034150102 0.005377341052202391 0 0 0
2830 1 3100.0 8.187547333774126e-05 0.019035594134450114 0.011538276575915296 0.011610130120354186 0 0 0
2831 1 3100.0 1.9940201776932008e-05 0.004056068500093707 0.01265644741514586 0.004658102191537583 0 0 0
2832 1 3100.0 3.843283616211944e-06 0.010909686351123053 0.0004809340979216484 0.0004572227538014422 0 0 0
2833 1 3100.0 0.00019927193068627896 0.0021716885979125213 0.018954747474247125 0.012536174274321563 0 0 0
2834 1 3100.0 0.00011216104565954106 0.018915810510536195 0.005918508237134694 0.01233455907111496 0 0 0
2835 1 3100.0 0.00012952414175031052 0.015517606332994167 0.007822783554055579 0.0025486004210746338 0 0 0
2836 1 3100.0 8.498806048449253e-05 0.014684646279131823 0.00069868498576349 0.014074238761464946 0 0 0
2837 1 3100.0 0.0001278170359611595 0.016973713056810547 0.010915779121794634 0.005150764381288537 0 0 0
2838 1 3100.0 0.00012588233419935202 0.007820566251754923 0.009024050737446169 0.01384017635804963 0 0 0
2839 1 3100.0 6.032536181216958e-05 0.011589153815885211 0.0015297701066861653 0.015780934237835442 0 0 0
2840 1 3100.0 5.973157661277412e-05 0.009780772870188642 0.0016518982923453174 0.000963943728228045 0 0 0
2841 1 3100.0 0.0002749486870850063 0.011669393755534678 0.012682200792707725 0.0123026708430953 0 0 0
2842 1 3100.0 2.209901729200122e-05 0.008496776172843746 0.0009937690208344108 0.002836695888983372 0 0 0
2843 1 3100.0 8.568648078705298e-05 0.018029402668098576 0.002533565875856384 0.007390452449886968 0 0 0
2844 1 3100.0 0.00015713191517749132 0.014745117538705738 0.015960987323621247 0.012523471224550262 0 0 0
2845 1 3100.0 0.0001974520477620223 0.014428029917274498 0.0141694347053885 0.002353087172974143 0 0 0
2846 1 3100.0 4e-05 0.010637210463506566 0.005223053126387348 0.017382291070342122 0 0 0
2847 1 3100.0 6.5371347000597604e-06 0.008298815932896195 0.013596624903952394 0.017580932550209084 0 0 0
2848 1 3100.0 0.00017316902475853925 0.015464061466076715 0.01677048148283768 0.012341144756064475 0 0 0
2849 1 3100.0 4.8508469097648364e-05 0.006881205621706194 0.002557530084085104 0.014705548568483358 0 0 0
2850 1 3100.0 7.633159423376962e-05 0.014123914941645596 0.0024039477719288143 0.01268570427374318 0 0 0
2851 1 3100.0 7.389699377179126e-05 0.011038012403189497 0.018050873686649406 0.003350366683628877 0 0 0
2852 1 3100.0 5.9839604742869206e-05 0.006984687595190407 0.001939269127467837 0.018269580529819935 0 0 0
2853 1 3100.0 7.354211924226994e-05 0.01626973537880002 0.018795728389871137 0.002583724375195866 0 0 0
2854 1 3100.0 5.424121261829609e-05 0.01628346290793285 0.013901223258164008 0.003725703109812727 0 0 0
2855 1 3100.0 6.025945551190228e-05 0.004032332189700295 0.004359529916073361 0.012979044826544271 0 0 0
2856 1 3100.0 1.6940689332524412e-05 0.01927039769537465 0.018111570611716404 0.019152053009651882 0 0 0
2857 1 3100.0 5.6991186294361126e-05 0.014065231535558604 0.004063111489669068 0.01424637997333911 0 0 0
2858 1 3100.0 4.282988786014983e-06 0.011969116385555058 0.0037994863765733688 0.006002942360530093 0 0 0
2859 1 3100.0 6.09072560691581e-05 0.018746980746792978 0.0041170505650501375 0.01694341537648536 0 0 0
2860 1 3100.0 6.964022443744454e-06 0.012900952287591114 0.011135737371419707 0.017442596604333043 0 0 0
2861 1 3100.0 3e-05 0.019353283419166187 0.012366513997769921 0.015427337023022942 0 0 0
2862 1 3100.0 6.70640264634086e-05 0.0027886940078954577 0.01701761517577187 0.00246357793908032 0 0 0
2863 1 3100.0 7.385610153697068e-05 0.007005182053154797 0.01704577469229639 0.007179055739839208 0 0 0
2864 1 3100.0 8.509358966581706e-05 0.00659034066729504 0.011327835256495134 0.010910553742286814 0 0 0
2865 1 3100.0 9.472664448289832e-05 0.011560495284977752 0.014855765594657629 0.018786699109113274 0 0 0
2866 1 3100.0 0.00016014816390071175 0.01381462598749881 0.008826621633222936 0.009753323065900401 0 0 0
2867 1 3100.0 0.00018825885181601967 0.006264509328653892 0.0050239975834882634 0.01923760866010871 0 0 0
2868 1 3100.0 4.796922585036016e-06 0.01381386919375175 0.008176063998182766 0.0013895988842987143 0 0 0
2869 1 3100.0 5.4163049991223685e-06 0.009589390916075304 0.01980283953402419 0.018164440804801098 0 0 0
2870 1 3100.0 0.00014416697866066275 0.006056639642243875 0.0023114478548067184 0.00574844128901668 0 0 0
2871 1 3100.0 5.1061563088213384e-05 0.007453994733827056 0.01052230705845773 0.0013732519667203529 0 0 0
2872 1 3100.0 0.00016529448133304487 0.010005677856629858 0.015771127376603983 0.0009933216134016798 0 0 0
2873 1 3100.0 4e-05 0.006798645541829822 0.01881851647962442 0.019944704869478323 0 0 0
2874 1 3100.0 4.6584325458302e-05 0.013530627931963846 0.012495480078623942 0.004222072378025704 0 0 0
2875 1 3100.0 4.782535414231752e-05 0.008693280269116121 0.0010504134094519277 0.011809835950309596 0 0 0
2876 1 3100.0 1.4872359066017261e-05 0.00043556874188666457 0.014199256872262674 0.005528699575015796 0 0 0
2877 1 3100.0 9.392181523867986e-05 0.0022781118119481873 0.0020117816872539116 0.017216982442468217 0 0 0
2878 1 3100.0 7.4904275906191335e-06 0.007322775767879418 0.0015297804251273646 0.0051254215540443146 0 0 0
2879 1 3100.0 7.441349888774699e-06 0.013736898410615473 0.0029938883842824024 0.007743554121911593 0 0 0
2880 1 3100.0 1.912759664920047e-05 0.007464539240623281 0.018912455823230354 0.011536870870727918 0 0 0
2881 1 3100.0 9.974325053391039e-05 0.01698461278315981 0.005269665066297513 0.010632232623665206 0 0 0
2882 1 3100.0 7.043330662933907e-05 0.0172977997502405 0.005453240885968807 0.012841324319625284 0 0 0
2883 1 3100.0 7.186368104132978e-05 0.012145448173192663 0.005206037614747903 0.014449981521419453 0 0 0
2884 1 3100.0 0.0001526354251231087 0.005060454052819308 0.01938920934326264 0.004890018402116734 0 0 0
2885 1 3100.0 8.02045456323448e-05 0.008063857145261213 0.017104209047055504 0.0005060589613182022 0 0 0
2886 1 3100.0 7.907689435817386e-05 0.0133766130153907 0.01296751977595595 0.01191793789627138 0 0 0
2887 1 3100.0 9.312806778213056e-05 0.007683243618889883 0.0002261010923804383 0.011634893394371465 0 0 0
2888 1 3100.0 9.146346934805039e-05 0.0021840429602259614 0.011725851896984081 0.012341899343597532 0 0 0
2889 1 3100.0 4e-05 0.014162357711077532 0.017360987636124123 0.0035696555410754875 0 0 0
2890 1 3100.0 0.00011707331014411218 0.010239769144529584 0.009492411976089608 0.016693183812259937 0 0 0
2891 1 3100.0 7.927201338133626e-05 0.004557867897253506 0.01958083884246607 0.011536528084554718 0 0 0
2892 1 3100.0 4e-05 0.008611055226501484 0.007148666884826953 0.008664499337001835 0 0 0
2893 1 3100.0 0.00010435634868715988 0.005693863173423904 0.010460331875363146 0.017950140444138837 0 0 0
2894 2 7870.0 0.0003 0.0019092303846552216 0.012295095212106527 0.010466768169246247 0 0 0
2895 1 3100.0 1.2526294231412316e-05 0.0035025669772847942 0.01107828440992236 0.002342481358931765 0 0 0
2896 1 3100.0 4e-05 0.0029700815976256185 0.008467104946666002 0.004269983749862675 0 0 0
2897 1 3100.0 0.00011341295487590494 0.0008821596499035358 0.007361219936660672 0.016566812612920888 0 0 0
2898 1 3100.0 0.00014313534406995885 0.013851559558032783 0.017666075125127568 0.017619955750908075 0 0 0
2899 1 3100.0 9.18382731141782e-05 0.01079556851595478 0.01277653899116741 0.018123023335706326 0 0 0
2900 1 3100.0 2.25724673907754e-05 0.01498262881277172 0.0024967823836602185 0.0038112921359052337 0 0 0
2901 1 3100.0 0.00010037216528590804 0.016418799648212006 0.0052851841455200015 0.007103540084935321 0 0 0
2902 1 3100.0 8.823256833002294e-05 0.01908413768894792 0.006734592291245015 0.004449392532457018 0 0 0
2903 1 3100.0 0.00010326375856981944 0.008094943990479848 0.008706880934168925 0.008313982059436325 0 0 0
2904 1 3100.0 0.00011111861851411543 0.00897260733737353 0.0022966059894555906 0.008862237096851503 0 0 0
2905 1 3100.0 9.942540069823972e-05 0.002996673289095163 0.008514074372273906 0.018609683427557422 0 0 0
2906 1 3100.0 0.00010726919884902814 0.008159015950855388 0.008770163732711002 0.019298666300182878 0 0 0
2907 1 3100.0 7.340805188864692e-05 0.014985691627136054 0.00974037495919178 0.01513425005330519 0 0 0
2908 1 3100.0 7.29196858670822e-06 0.007216598725393933 0.017593723329759253 0.0009438793950521155 0 0 0
2909 1 3100.0 9.380214157961799e-05 0.016031036344761725 0.016267298215915153 0.015159449997062605 0 0 0
2910 1 3100.0 0.00010830425901669126 0.005251041722973719 0.013180762379580045 0.011258332654090855 0 0 0
2911 1 3100.0 6.63787431980192e-05 0.002430130364229142 0.019175066721897824 0.015699151883984793 0 0 0
2912 1 3100.0 1.7754473130058697e-05 0.019230097117264415 0.016837141176646347 0.01065595274523687 0 0 0
2913 1 3100.0 5.749951640434137e-05 0.018108492008018243 0.010334935509001381 0.017681036127887812 0 0 0
2914 1 3100.0 1.5973479801879235e-05 0.017230503238757272 0.002342244752333157 0.004842224731262295 0 0 0
2915 1 3100.0 0.00010686385344794298 0.0034837015496968454 0.01929598175168295 0.011459732809564733 0 0 0
2916 1 3100.0 5.9984208754610176e-05 0.01846612616715996 0.011485448912141509 0.01987985208610998 0 0 0
2917 1 3100.0 0.00013324351071671172 0.010717080546936108 0.005648848472423307 0.0026191199297276964 0 0 0
2918 1 3100.0 7.025044466691364e-05 0.004288486499784187 0.012216538426876162 0.015257353345595446 0 0 0
2919 1 3100.0 7.962646474903448e-05 0.015031857375427324 0.012212777538323696 0.006696600089739238 0 0 0
2920 1 3100.0 8.789307910357808e-06 0.016828372337062008 0.007618426489742502 0.010036767974580467 0 0 0
2921 1 3100.0 0.00011389777810610075 0.014420304586296959 0.004840177759997884 0.0030785894966294503 0 0 0
2922 1 3100.0 0.00011640210548789259 0.004100955772808493 0.01290984652454311 0.010488467842339151 0 0 0
2923 1 3100.0 5.169767721152754e-05 0.004153500503439547 0.012116729243404394 0.008360122099287633 0 0 0
2924 1 3100.0 0.0001435981052867523 0.014101265732614221 0.0038804818611583303 0.005638043210703745 0 0 0
2925 1 3100.0 1.5989865335566666e-05 0.009616833483142009 0.01026672349423073 0.0018031792751004867 0 0 0
2926 1 3100.0 0.00011684460139400214 0.012910020585612364 0.0043566732721765184 0.018020615600297926 0 0 0
2927 1 3100.0 1.852164958189626e-05 0.004888411766946821 0.012815254346992698 0.005254105041928479 0 0 0
2928 1 3100.0 8.354044044914663e-05 0.0018784981262602817 0.002592586537699391 0.001994703987570355 0 0 0
2929 1 3100.0 1.047641882264764e-05 0.019409498498323626 0.008126810735401323 0.011178878629855398 0 0 0
2930 1 3100.0 0.00012059581031523931 0.005396405967580963 0.012440251021270382 0.0006166106188045693 0 0 0
2931 1 3100.0 0.00012425968520760622 0.010234319653345104 0.0019587070374518637 0.016167674218088776 0 0 0
2932 1 3100.0 0.00010576273723704299 0.0034599266530801727 0.013790329433500243 0.016784124101956854 0 0 0
2933 1 3100.0 1.807791182407106e-05 0.011564531522049242 0.005918389242224798 0.01332636292341368 0 0 0
2934 1 3100.0 7.481885803153832e-05 0.017837880568869164 0.0056469560059853145 0.017877727660206733 0 0 0
2935 1 3100.0 2.7180183020385323e-05 0.013905385313544863 0.007795203750818534 0.01696716236898301 0 0 0
2936 1 3100.0 0.00012949543482608844 0.002490049941148351 0.0005235682443446019 0.006619235124626408 0 0 0
2937 1 3100.0 1.0490435481500315e-05 0.01533548374724392 3.529246453040614e-05 0.018661999210393233 0 0 0
2938 1 3100.0 9.189130809211991e-05 0.006167122644793589 0.002261372114616133 0.01605260734216483 0 0 0
2939 1 3100.0 1.616133167635511e-05 0.009754147075164882 0.0033054052540272597 0.0010287505519863782 0 0 0
2940 1 3100.0 0.00011918102094403043 0.008932680529191645 0.0070583985221292075 0.006513395620962865 0 0 0
2941 1 3100.0 0.00010422864332997178 0.011625051714122769 0.011881168632934121 0.012178290292421125 0 0 0
2942 1 3100.0 0.0001015149488434104 0.008387943432880953 0.014526408765930346 0.011317090500551236 0 0 0
2943 1 3100.0 8.618079730147229e-05 0.013861325480284611 0.00512685306464638 0.014519597955185877 0 0 0
2944 1 3100.0 0.00011225829629528875 0.00925107193431653 0.007321258923006169 0.019493159100981247 0 0 0
2945 1 3100.0 5.4669832648971915e-05 0.00456614187438255 0.013544460111158976 0.009103781438619497 0 0 0
2946 1 3100.0 4e-05 0.018632268231137297 0.006484874300596584 0.01721376089800414 0 0 0
2947 1 3100.0 9.43587879259216e-06 0.006795717396743999 0.013733477178734278 0.012301141533474086 0 0 0
2948 1 3100.0 0.00010617316688090188 0.002687167292622249 0.00990565229676824 0.012320480638073316 0 0 0
2949 1 3100.0 2.054977419586385e-05 0.01636825065674567 0.0016673714011783464 0.0018167891229961418 0 0 0
2950 1 3100.0 5.493085785087483e-05 0.01146319603074075 0.0036519660617238465 0.009751680309316177 0 0 0
2951 1 3100.0 7.319729268409128e-06 0.004840288093348384 0.005656204366549866 0.008108774387053468 0 0 0
2952 1 3100.0 0.00018524867902313725 0.00658158066447632 0.011101789897849755 0.010315567380428076 0 0 0
2953 1 3100.0 9.182274090496074e-05 0.007875044917902124 0.013225106900237435 0.01552496362054955 0 0 0
2954 1 3100.0 9.905102837492013e-05 0.01963848615729672 0.01901522420828606 0.016839014215667428 0 0 0
2955 1 3100.0 0.0001241766235272426 0.00040596560725958603 0.016406280492850003 0.0036800321061902534 0 0 0
2956 1 3100.0 2.5e-06 0.00495494687713474 0.003196683703566777 0.011787536534296466 0 0 0
2957 1 3100.0 3e-05 0.006252606963257269 0.0010719144103964202 0.010752796070958304 0 0 0
2958 1 3100.0 8.367703975973747e-05 0.016723078771051163 0.0186224147448947 0.006699255883876648 0 0 0
2959 1 3100.0 2.5094473111557486e-05 0.01863461561645271 0.017559957512154754 0.013385552135357711 0 0 0
2960 1 3100.0 0.00015576116009353226 0.019721478919135758 0.004885823779550516 0.0040341403542722525 0 0 0
2961 1 3100.0 6.463896032855106e-05 0.018205648341285012 0.0015946105693218095 0.014371014749350286 0 0 0
2962 1 3100.0 5.475298341172329e-05 0.0035895708938790656 0.011248218478078258 0.005928877183014861 0 0 0
2963 1 3100.0 4e-05 0.001371250313939772 0.011637465778324982 0.01755540495978515 0 0 0
2964 1 3100.0 0.0001274199393253846 0.015582013371939 0.01183871367673537 0.019862779994425758 0 0 0
2965 1 3100.0 6.134192559678144e-05 0.008657600918170983 0.010348257219058523 0.015613965291693739 0 0 0
2966 1 3100.0 1.0076991042282696e-05 0.008716564872319674 0.0038282249379890496 0.002346666173096985 0 0 0
2967 1 3100.0 9.818688167137408e-05 0.011078849013970257 0.005322350592687191 0.01572612073396606 0 0 0
2968 1 3100.0 6.870657795048072e-05 0.01839589218693594 0.012752542465570215 0.009950949171134538 0 0 0
2969 1 3100.0 6.602697943024976e-05 0.00040416677887429754 0.0021943012626692423 0.003063302238641473 0 0 0
2970 1 3100.0 1.5154765580155158e-05 0.010906389101805343 0.01479287230820279 0.012516233151490253 0 0 0
2971 1 3100.0 0.0001857890029379806 0.014092438933533688 0.011468111704305057 0.012967468581987876 0 0 0
2972 1 3100.0 7.512514976315818e-05 0.001210079413693539 0.014045422984063192 0.009789094936067234 0 0 0
2973 1 3100.0 0.00013776971804870281 0.011687978568778653 0.011776520725074608 0.00829757952205624 0 0 0
2974 1 3100.0 3e-05 0.005255206091424535 0.0021869471005229743 0.003174354197825608 0 0 0
2975 1 3100.0 0.00013732627513885634 0.013887931720951067 0.007153132742811115 0.0033792564960552843 0 0 0
2976 1 3100.0 9.780968245660513e-05 0.01714475098822908 0.009586031176738914 0.0099225765047858 0 0 0
2977 1 3100.0 5.033452282243527e-05 0.006921087829951467 0.009704121648780827 0.01447314622787494 0 0 0
2978 1 3100.0 3e-05 0.0035547553019343483 0.015699868578459234 0.019953739883338154 0 0 0
2979 1 3100.0 0.00011664743104263282 0.010971725756021688 0.019844322275862105 0.007787184037079943 0 0 0
2980 1 3100.0 1.2060791739245306e-05 0.014275028524052356 0.008068883503700145 0.005001033037881751 0 0 0
2981 1 3100.0 0.00010620890031556271 0.012999192517193427 0.01411554150661752 0.01849235985925516 0 0 0
2982 1 3100.0 7.514103583673689e-05 0.015507170407148317 0.010413590520726863 0.006940234807948087 0 0 0
2983 1 3100.0 0.0002735718458854373 0.006853780131032907 0.0040464157077700616 0.0075129199349153655 0 0 0
2984 1 3100.0 5.099488127865705e-06 0.004545529331946143 0.008425607150151537 0.014071878617668902 0 0 0
2985 1 3100.0 6.089703061163437e-06 0.019662471492585317 0.014450543033034174 0.010859110220068401 0 0 0
2986 1 3100.0 5.584144550389314e-05 0.014037877714327246 0.011427441236600396 0.019166900489112428 0 0 0
2987 1 3100.0 6.724527508576973e-05 0.009060784745812582 0.003816548565182349 0.0039580980868991 0 0 0
2988 1 3100.0 6.312235369789951e-05 0.019382198408636593 0.014838537906037386 0.00953132214240543 0 0 0
2989 1 3100.0 2.884023597260214e-05 0.01024254418810465 0.010859141137561945 0.01718019914360961 0 0 0
2990 1 3100.0 0.00010701687247096809 0.004610193551552795 0.007111045089044212 0.007373238970919076 0 0 0
2991 1 3100.0 0.00017710434360047162 0.01390352197355026 0.0193310945775334 0.0058047468819333 0 0 0
2992 1 3100.0 5.3511692651674904e-05 0.00877405394688755 0.000571324164797983 0.003025288214197928 0 0 0
2993 1 3100.0 1.7180082213541145e-05 0.012297511698044815 0.016293751904002965 0.003723882277550769 0 0 0
2994 1 3100.0 0.00011298023013829023 0.015165733168716862 0.004805058015742452 0.016130267849005075 0 0 0
2995 1 3100.0 9.46836572584569e-05 0.016880751482160686 0.01762290691990636 0.01609817966947627 0 0 0
2996 1 3100.0 6.880912514895272e-05 0.006394092499585728 0.018320416529024077 0.019177199756352386 0 0 0
2997 1 3100.0 0.00015288614548460323 0.008157091128597608 0.019762998999492017 0.009130302145133861 0 0 0
2998 1 3100.0 1.6086829790568717e-05 0.0004397511865303281 0.012251463195950517 0.0015936833576448964 0 0 0
2999 1 3100.0 6.717296565141008e-05 0.002967250148950156 0.009298961824748438 0.013121670478237537 0 0 0
3000 1 3100.0 4e-05 0.019047687667323406 0.003172714155492985 0.00033638637973063776 0 0 0
3001 1 3100.0 9.118478066655721e-05 0.005609821655615676 0.017878404789047297 0.005343749329552971 0 0 0
3002 1 3100.0 7.943079403009106e-05 0.013197204796566468 0.01683590559035462 0.017672234672090403 0 0 0
3003 1 3100.0 1.2323366076628321e-05 0.017950584614960335 0.014916914731442589 0.019624418158222044 0 0 0
3004 1 3100.0 6.050444147958804e-05 0.0185835438995036 0.0036212813824868777 0.0076410778867472065 0 0 0
3005 1 3100.0 4.63063115853089e-05 0.01434893791254858 0.01960272864703863 0.019470570807021838 0 0 0
3006 1 3100.0 9.534441613370814e-05 0.0010433345615884768 0.016483026700512136 0.0037142223394182215 0 0 0
3007 1 3100.0 1.6609624410475605e-05 0.013064322792099214 0.011907060717220721 0.014900842353278309 0 0 0
3008 1 3100.0 5.386064797881924e-05 0.0037392691584623625 0.018441277476837645 0.005712192873116584 0 0 0
3009 1 3100.0 9.514119061427825e-06 0.005805390979536134 0.017866298103296922 0.011192111693245299 0 0 0
3010 1 3100.0 7.4444320223667e-05 0.012599498934479656 0.012185762131534902 0.011125234029368266 0 0 0
3011 1 3100.0 8.522865229610018e-05 0.00787269986063616 0.0031136148874485172 0.003357497415304951 0 0 0
3012 1 3100.0 9.93326856285653e-05 0.00992223914998915 0.017743165581799083 0.01680788754485222 0 0 0
3013 1 3100.0 5.3621837568392186e-05 0.013138083057517819 0.011593984231184648 0.006021324051096328 0 0 0
3014 1 3100.0 9.74520434198522e-06 0.0014493052241948761 0.007642566986200257 0.004161858923143502 0 0 0
3015 1 3100.0 8.721018007141276e-05 0.015703891380667793 0.014252376384329404 0.014400531041807446 0 0 0
3016 1 3100.0 1.3960343449407381e-05 0.018445312037243866 0.01070732306735065 0.013566964734981719 0 0 0
3017 1 3100.0 1.5389092396210957e-05 0.0030532528209183465 0.00256246998447105 0.01782775311223699 0 0 0
3018 1 3100.0 4.2827995721224536e-05 0.005904680623718804 0.008929707459231115 0.002187774510722684 0 0 0
3019 1 3100.0 0.00011363542664916826 0.014421871343566052 0.014071328075142461 0.004752273605969986 0 0 0
3020 1 3100.0 9.03106964216047e-05 0.011002478887171865 0.01774520615640222 0.015950538393413597 0 0 0
3021 1 3100.0 7.83195962969446e-06 0.0008052365671656511 0.0045837845970822366 0.0074162544468414325 0 0 0
3022 1 3100.0 1.5173182004304372e-05 0.014023289835918764 0.013424824301891621 0.011290854073156617 0 0 0
3023 1 3100.0 0.0001241770409973532 0.01320139856518497 0.006457223857591734 0.011372209205478507 0 0 0
3024 1 3100.0 2.816606308422665e-05 0.0014644294484704 0.01676048611483921 0.015999531710221136 0 0 0
3025 1 3100.0 2.1320584349595458e-05 0.00838780232391645 0.007589428022554009 0.005895385562904944 0 0 0
3026 1 3100.0 9.710306217956566e-05 0.015037676814130568 0.008273731122358524 0.010180760532057525 0 0 0
3027 1 3100.0 0.00011257207626508991 0.010166459679602443 0.007714829352414243 0.007453125760119648 0 0 0
3028 1 3100.0 7.563211883375688e-05 0.017127488910953458 0.016577286898985126 0.014223441795568748 0 0 0
3029 1 3100.0 4.5695045355790327e-05 0.011423481412905135 0.0010365944734385317 0.011974083212999776 0 0 0
3030 1 3100.0 2.1394918876437862e-05 0.008582707311452832 0.00936452834598353 0.0018784646294507379 0 0 0
3031 1 3100.0 1.0196169318312936e-05 0.0022696135456530256 0.0028779730157493235 0.007958748895275057 0 0 0
3032 1 3100.0 7.530423145431673e-06 0.011849593900373396 0.01254759415843396 0.0168206713624998 0 0 0
3033 1 3100.0 4.6256000270487435e-05 0.011410120945450514 0.0005547873269641918 0.00040728313708495454 0 0 0
3034 1 3100.0 8.452574668742868e-06 0.011354241710793992 0.010333659455768649 0.014482670407680951 0 0 0
3035 1 3100.0 6.813264516259326e-05 0.009374137574989725 0.01957461281120649 0.0190007844701972 0 0 0
3036 1 3100.0 5.5540058473939605e-05 0.003516791881119937 0.014666370048667545 0.004373610324876505 0 0 0
3037 1 3100.0 7.135402864392542e-05 0.012327035278061707 0.015085470798747731 0.002099224933547009 0 0 0
3038 1 3100.0 0.00010274124851136689 0.009383832106136606 0.007875883037373506 0.01040795163634504 0 0 0
3039 1 3100.0 2.522398573258433e-05 0.01117438996505463 0.005563777939935802 0.003577310319247618 0 0 0
3040 1 3100.0 5.472588340093564e-05 0.007091633143831192 0.0011848835540701986 0.006161726459759345 0 0 0
3041 1 3100.0 4e-05 0.008943495036465209 0.013726838013625552 0.01794302236219127 0 0 0
3042 1 3100.0 6.857785521359165e-05 0.0011027220018254857 0.012223708167156476 0.0029552362567053674 0 0 0
3043 1 3100.0 6.203549023801495e-05 0.010606713402381944 0.01824368105296965 0.0193879985140931 0 0 0
3044 1 3100.0 7.004347613751842e-05 0.003822877326126002 0.011561938827310369 0.00016527142153032227 0 0 0
3045 1 3100.0 9.038230778299873e-05 0.01736583082759127 0.011283407437710205 0.006244248880232078 0 0 0
3046 1 3100.0 4.197931448612808e-05 0.013008151644985042 0.007266278350072573 0.008514210667983241 0 0 0
3047 1 3100.0 8.014975083223425e-06 0.014932706431598773 0.005650467647511795 0.008270028397163407 0 0 0
3048 1 3100.0 4e-05 0.0075820747500994976 0.011690945746722062 0.007938253369915263 0 0 0
3049 1 3100.0 1.4832194575351948e-05 0.016947821653934207 0.016120378041512333 0.007423423530733141 0 0 0
3050 1 3100.0 1.2223505187605254e-05 0.015412279994879211 0.0005510764929228189 0.010070392477974213 0 0 0
3051 1 3100.0 0.00014379464717427246 0.01185096086964867 0.011781038407476527 0.014061710336246983 0 0 0
3052 1 3100.0 1.508228493011381e-05 0.017806695473902824 0.014936892888290164 0.012636652676774968 0 0 0
3053 1 3100.0 0.0001835132198676829 0.00992392140618112 0.004600419880790747 0.013635132045476768 0 0 0
3054 1 3100.0 0.00012447674905537783 0.007095197420134781 0.007211316310725943 0.011825434066187402 0 0 0
3055 1 3100.0 8.937274052745458e-05 0.0008104159244387146 0.00044326656569627264 0.0019822654758317607 0 0 0
3056 1 3100.0 6.911816323398283e-05 0.0022809293887310895 0.018113270124298395 0.010365649466660142 0 0 0
3057 1 3100.0 0.00011452033916953631 0.017739977234942302 0.005511379303446488 0.011043115872448668 0 0 0
3058 1 3100.0 0.0001222722958249156 0.012581366201247257 0.01896910717713116 0.016312014994003414 0 0 0
3059 1 3100.0 0.00010089472168192867 0.017561072895137874 0.017065121173318928 0.016965950613153213 0 0 0
3060 1 3100.0 8.910224417776137e-05 0.019433816880974328 0.016456861144062616 0.01438636740282637 0 0 0
3061 1 3100.0 2.7632778168350274e-06 0.0017451978784811778 0.007984121158646666 0.014711655247976834 0 0 0
3062 1 3100.0 5.514556092527033e-05 0.001674524894803846 0.003824680440195845 0.009433028129838652 0 0 0
3063 1 3100.0 8.554175164620199e-05 0.018139090187226307 0.008523154100171258 0.016740791459870393 0 0 0
3064 1 3100.0 0.00011601110393183833 0.010684406476983493 0.015055818111546014 0.018444927442203506 0 0 0
3065 1 3100.0 0.00010330883115686445 0.006219933637257982 0.011155655076349441 0.019728425293671498 0 0 0
3066 1 3100.0 8.872030703403434e-05 0.0028770577392958577 0.009423836355169567 0.0011332109970191321 0 0 0
3067 1 3100.0 0.00010662311995272573 0.017774340711158746 0.010482330625556882 0.014281510928124935 0 0 0
3068 1 3100.0 2.8939032954336022e-05 0.011677585273411064 0.011501137851390009 0.01762071947608316 0 0 0
3069 1 3100.0 0.00022888828297388308 0.011245507430018788 0.018722115664812078 0.002927905196830554 0 0 0
3070 1 3100.0 0.00010879066028673172 0.0007951400920106198 0.004881472197899658 0.01402507071896609 0 0 0
3071 1 3100.0 0.00017166397981648984 0.014915862454616268 0.016318312559433328 0.0049657329852009 0 0 0
3072 1 3100.0 5.46554982126337e-05 0.0055991618804846904 0.0034088347828732496 0.007056990869274581 0 0 0
3073 1 3100.0 9.430597779145521e-05 0.0058094288533646005 0.002955880287686642 0.002776043590542255 0 0 0
3074 1 3100.0 0.00015138534439340607 0.008102810309262146 0.013412014087306386 0.019268698666994988 0 0 0
3075 1 3100.0 0.00014240876236010648 0.00604250065587382 0.00657033640769908 0.00848011189116711 0 0 0
3076 1 3100.0 0.0001979161013565219 0.015325774610767017 0.012716851991720152 0.014716982202827307 0 0 0
3077 1 3100.0 5.812052839174106e-05 0.0009570099851598141 0.0006807558846752642 0.005922117005516097 0 0 0
3078 1 3100.0 0.0001492436480698162 0.0030611312210977676 0.011208658813340355 0.006961453123802057 0 0 0
3079 1 3100.0 5.895212196827775e-06 0.017938541721672936 0.01690181704955859 0.015301121861839772 0 0 0
3080 1 3100.0 7.539998467180106e-05 0.010178939462685485 0.013245961465974562 0.0015067741478413045 0 0 0
3081 1 3100.0 0.000213121323867931 0.006199034290273348 0.005030474078693203 0.006093640138282583 0 0 0
3082 1 3100.0 4e-05 0.018509215498353552 0.0037462411199033117 0.01887668071332505 0 0 0
3083 1 3100.0 1.5908714282669715e-05 0.011549931736465976 0.012264044104390139 0.011210203314617069 0 0 0
3084 1 3100.0 0.00010686458135297575 0.010752509866474596 0.011470906395184315 0.0003191562650174965 0 0 0
3085 1 3100.0 7.767804113766647e-05 0.012149637685323194 0.004779204978204894 0.006871209991117298 0 0 0
3086 1 3100.0 1.9181134975029588e-05 0.004320981305967782 0.00024343506327297406 0.008109180272729903 0 0 0
3087 1 3100.0 9.382003442803545e-06 0.00014169393542505407 0.009679462471185006 0.008787518006577915 0 0 0
3088 1 3100.0 6.575443951684311e-05 0.01106548946843382 0.003439212546401632 0.003840658005696236 0 0 0
3089 1 3100.0 9.544334626255255e-05 0.0021519455360947746 0.016640235993886608 0.0020774353319522477 0 0 0
3090 1 3100.0 7.0803095786121105e-06 0.009670182370937131 0.017292868239012785 0.0031572754860079533 0 0 0
3091 1 3100.0 1.3565762498430155e-05 0.0011229859466295954 0.019583381490896893 0.0055820802396100416 0 0 0
3092 1 3100.0 6.013830944575732e-05 0.0010459303139141352 0.006877200820922986 0.013267982974085369 0 0 0
3093 1 3100.0 0.0001014250486113585 0.018759897086224216 0.005206128298105315 0.019149089096809162 0 0 0
3094 1 3100.0 0.00019084102936939252 0.004708467226256641 0.004148946444913261 0.015336176216310105 0 0 0
3095 1 3100.0 9.330579691652254e-06 0.0013502309255087736 0.0011514681129588488 0.007556886426197109 0 0 0
3096 1 3100.0 0.0001855041661658268 0.010538103221139919 0.006891197550894913 0.004462508530648438 0 0 0
3097 1 3100.0 1.916961277761439e-05 0.005263817948939134 0.004712704955216067 0.011443263625006108 0 0 0
3098 1 3100.0 1.6370606065988273e-05 0.004515384035006929 0.011256002132757296 0.0026042501751499495 0 0 0
3099 1 3100.0 8.819304449258918e-06 0.006911845770429519 0.008242480537758156 0.0012858555586959834 0 0 0
3100 1 3100.0 5.563663690166132e-06 0.014690679915848957 0.008382395176252477 0.00884475394084307 0 0 0
3101 1 3100.0 0.00014631100607381036 0.01592494601939586 0.015726711404553412 0.012272065665104921 0 0 0
3102 1 3100.0 0.00010492243870100831 0.018533883038396468 0.01692001204118339 0.009681199644568058 0 0 0
3103 1 3100.0 4e-05 0.008369843910417412 0.0004137349479974132 0.013515781522994244 0 0 0
3104 1 3100.0 0.0001331034421505024 0.00644522008589909 0.0077877086914984435 0.014762831374867148 0 0 0
3105 1 3100.0 0.0001287632656368712 0.01781273331956732 0.019743955099188675 0.011982697921143546 0 0 0
3106 1 3100.0 0.00014269296682953 0.0037470189184989023 0.011768997508383706 0.011286152493946098 0 0 0
3107 1 3100.0 1.5083556796855031e-05 0.00011253778920457848 0.019727953451845772 0.006212985320019486 0 0 0
3108 1 3100.0 4e-05 0.0022423438247636883 0.0042434929351310505 0.01260300472754075 0 0 0
3109 1 3100.0 3e-05 0.015995307807443876 0.011857299667798808 0.015866899798864614 0 0 0
3110 1 3100.0 2.551333297001696e-05 0.0008579322648740517 0.011549842810084778 0.010515712063531756 0 0 0
3111 1 3100.0 6.956910947914904e-05 0.012026619630383071 0.006005814196170836 0.010549631415419326 0 0 0
3112 1 3100.0 7.534683887269405e-05 0.016374734526986796 0.004509193348960119 0.012847622460170054 0 0 0
3113 1 3100.0 8.307680361325208e-05 0.0046778782119194515 0.019161232553458325 0.013384565357115706 0 0 0
3114 1 3100.0 8.993866774501864e-05 0.01731357179149285 0.016283718582700172 0.0018547260270845058 0 0 0
3115 1 3100.0 0.00017876505344073936 0.0085962089009822 0.013631356334759856 0.0034458309525010255 0 0 0
3116 1 3100.0 0.00013622783851734374 0.012241598253046642 0.018727681977720425 0.004238965623639536 0 0 0
3117 1 3100.0 7.840641026210327e-05 0.016575029841979637 0.015874711821292395 0.010221039420188031 0 0 0
3118 1 3100.0 1.1276230576831498e-05 0.017043992375763647 0.01577460417353026 0.005034285078432781 0 0 0
3119 1 3100.0 0.00013613411713654888 0.0009589357733402334 0.0016685843234116359 0.0055204042414391955 0 0 0
3120 1 3100.0 8.786453001517435e-06 0.017921912427147354 0.010299839222221363 0.019831812037962807 0 0 0
3121 1 3100.0 0.0002007474546386363 0.015010176640549823 0.01744377308719553 0.005862836964338801 0 0 0
3122 1 3100.0 2.4131950075345934e-05 0.018067604305730636 0.002388682464314978 0.00912277666056741 0 0 0
3123 1 3100.0 5.3821577154915204e-06 0.004997474987685992 0.010325915769627363 0.017674330327195786 0 0 0
3124 1 3100.0 2.0784516670326565e-05 0.004699086792322345 0.008387231266238844 0.00023531017461372763 0 0 0
3125 1 3100.0 4e-05 0.0022097500433136256 0.0024491878241803097 0.014313729929915675 0 0 0
3126 1 3100.0 6.938619874344332e-05 0.005881491461905498 0.005812541100871095 0.014848614893862435 0 0 0
3127 1 3100.0 8.79869108475364e-05 0.002241559758475955 0.014368520933120138 0.01612647030824276 0 0 0
3128 1 3100.0 3e-05 0.007826065712659348 0.0073744887716192704 0.014836404302389077 0 0 0
3129 1 3100.0 7.4000835924720424e-06 0.015848502791392504 0.005214903440665989 0.013153682828873602 0 0 0
3130 1 3100.0 7.116567430236523e-05 0.0199286518833909 0.01768192377857297 0.015574569141912688 0 0 0
3131 1 3100.0 1.5406735992481984e-05 0.01461871414686455 0.012243870105739407 0.01992547628546071 0 0 0
3132 1 3100.0 7.167955133091053e-05 0.015387365731380208 0.019747384853219124 0.010189916368391677 0 0 0
3133 1 3100.0 1.887350726699893e-05 0.01155568837688452 0.006347070082123301 0.00942718780340585 0 0 0
3134 1 3100.0 1.1703819545917154e-05 0.012309882665120783 0.01189868830664632 0.003025692973748914 0 0 0
3135 1 3100.0 7.665275193895564e-05 0.014172315415077904 0.005244359808030112 0.00260047407938332 0 0 0
3136 1 3100.0 1.978736230612581e-05 0.0069377920544288815 0.003986265303778721 0.0015709410305406242 0 0 0
3137 1 3100.0 0.00012520924195407173 0.011024094979665878 0.006731852487906401 0.0019291337842720947 0 0 0
3138 1 3100.0 2.0804060240545648e-05 0.008520279290900507 0.0119256902393351 0.019462672023602624 0 0 0
3139 1 3100.0 5.009770763182833e-06 0.010028835231223365 0.009719097641671705 0.019359329216995062 0 0 0
3140 1 3100.0 0.00011602092138400145 0.004855450631162132 0.003224706129778928 0.014558613396269897 0 0 0
3141 1 3100.0 9.950747929495508e-05 0.0002699052243682861 0.004543331852850619 0.013556891832553148 0 0 0
3142 1 3100.0 0.00021038709698646633 0.00024646176084107277 0.014345830590273966 0.009564416726153886 0 0 0
3143 1 3100.0 0.00012172488660852553 0.009791458480626153 0.016497649897908983 0.010332790354504098 0 0 0
3144 1 3100.0 1.7942110997752465e-05 0.0022871052648376303 0.013377673119406007 0.014425167272707188 0 0 0
3145 1 3100.0 0.00013918655335871667 0.012499018992486673 0.006157994594921746 0.0003221682818884055 0 0 0
3146 1 3100.0 8.741370543242169e-05 0.016905626415495346 0.01886468420167803 0.010909021164479777 0 0 0
3147 1 3100.0 7.365737263416182e-05 0.012774565379503052 0.008536944330069617 0.011179497976887465 0 0 0
3148 1 3100.0 0.00013702916938720212 0.007195325729177125 0.00600040120979282 0.016156836317262765 0 0 0
3149 1 3100.0 9.147254904333141e-06 0.012795476877791123 0.009147364300671753 0.017787827506900337 0 0 0
3150 1 3100.0 2.5e-06 0.015344414731541108 0.013125627434659537 0.010094446453790816 0 0 0
3151 1 3100.0 8.304123206208355e-05 0.008819187913337037 0.012994951983498447 0.002858874520479387 0 0 0
3152 1 3100.0 4.0044400796982156e-06 0.01315769690648133 0.002080855189256254 0.011937778206356194 0 0 0
3153 1 3100.0 5.292304652430969e-05 0.013032576092943173 0.008384784527991266 0.0114002607624933 0 0 0
3154 1 3100.0 0.00015296505845634152 0.01479938689991662 0.00897629119707084 0.012540148679510412 0 0 0
3155 1 3100.0 0.00010683170029413077 0.0003651984029640506 0.004556469100067979 0.004740473258539076 0 0 0
3156 1 3100.0 4.6370517483924044e-05 0.015189632262250391 0.004062576490652682 0.004798044392727909 0 0 0
3157 1 3100.0 1.3385593814918672e-05 0.002831256125706283 0.013033306253126537 0.01014734976317145 0 0 0
3158 1 3100.0 4e-05 0.0011395546738628883 0.010625165556559913 0.019517734221321276 0 0 0
3159 1 3100.0 0.00010791403635147992 0.013622143458908274 0.00125157523699363 0.011483372059849553 0 0 0
3160 1 3100.0 5.775780609523134e-05 0.011328354190297403 0.003778636447156857 0.019100993920556857 0 0 0
3161 1 3100.0 0.00015229923941295368 0.018320239404010022 0.00713682972145877 0.01838789067486926 0 0 0
3162 1 3100.0 3e-05 0.006059031777827453 0.0005499504474006717 0.017101170545374723 0 0 0
3163 1 3100.0 0.00022594161181564191 0.016080538828702407 0.00824581131584371 0.005815985043359435 0 0 0
3164 1 3100.0 8.663088102458158e-06 0.01786945311937017 0.019851826513666945 0.010696420140615726 0 0 0
3165 1 3100.0 5.969984694641096e-06 0.002022179730584545 0.004409808253030445 0.01418019884689185 0 0 0
3166 1 3100.0 9.283544661180959e-05 0.007585613550110474 0.013216716518840455 0.019878722519973163 0 0 0
3167 1 3100.0 2.6804770690930758e-05 0.0016084010113448816 0.009783508234979206 0.0019977453980205063 0 0 0
3168 1 3100.0 4e-05 0.004979185853422676 0.01634539242982699 0.011706994600166882 0 0 0
3169 1 3100.0 1.5172744045488883e-05 0.009288626858626976 0.0108237355220144 0.001487649164149023 0 0 0
3170 1 3100.0 6.551780105131437e-05 0.007395393479679433 0.011820372849039716 0.019667552494625293 0 0 0
3171 1 3100.0 0.00010178723031588516 0.010844933537854163 0.014429700094229125 0.012704837526806727 0 0 0
3172 1 3100.0 6.492274255493194e-05 0.0069436911312664076 0.014887308532125639 0.013872589233363323 0 0 0
3173 1 3100.0 9.701935902699943e-05 0.014278734844512055 0.009709318813540967 0.001998466009146157 0 0 0
3174 1 3100.0 0.00010739951136749162 0.0037087212581289504 0.0021754130578507604 0.014542641470327796 0 0 0
3175 1 3100.0 5.532958229676424e-05 0.0012566594781614107 0.004518334847726943 0.00409791217378842 0 0 0
3176 1 3100.0 1.6789101005298755e-05 0.0033275369445785316 0.014058550202700821 0.0004615751367777848 0 0 0
3177 1 3100.0 0.00027878586980039483 0.002965247930935627 0.011888543135459348 0.01882604658349419 0 0 0
3178 1 3100.0 7.698805959349635e-06 0.010490038522198004 0.007448994103333056 0.013182425611606203 0 0 0
3179 1 3100.0 4.303041286136569e-05 0.011391692491157202 0.013459307367621387 0.01648031034649977 0 0 0
3180 1 3100.0 0.0001464674978499101 0.003340546026955331 0.007330710708219364 0.01700829943840403 0 0 0
3181 1 3100.0 4.345791460137278e-05 0.011001379982993548 0.01469095725088746 0.0005943589208631659 0 0 0
3182 1 3100.0 0.00010098976287882591 0.00924699927022158 0.01626493251458631 0.00787975293756893 0 0 0
3183 1 3100.0 4e-05 0.010524706173642004 0.0072001317541975215 0.019520885642778565 0 0 0
3184 1 3100.0 2.1798226491250214e-05 0.00096302303134412 0.0006299366712220145 0.008921374996238515 0 0 0
3185 1 3100.0 9.382024883051544e-06 0.005572330751883978 0.0024902623004720978 0.012774742709723277 0 0 0
3186 1 3100.0 0.00011014276778019182 0.012254344492772294 0.018641107510577265 0.009472645183694613 0 0 0
3187 1 3100.0 0.0001466572617277189 0.019193438246461365 0.011713074004125088 0.0021797059730923585 0 0 0
3188 1 3100.0 7.344614665323335e-05 0.0033326571779129233 0.018907503153725216 0.01258770260189749 0 0 0
3189 1 3100.0 0.00016024257361930684 0.018355199816625718 0.0118472789561064 0.008321641116721578 0 0 0
3190 1 3100.0 6.711363752050024e-05 0.01492918038347064 0.019490707921888978 0.0150199261848291 0 0 0
3191 1 3100.0 9.963410726760246e-05 0.014250675506753923 0.00462934838361905 0.013185670906610034 0 0 0
3192 1 3100.0 0.00010126842787920786 0.008632612568924315 0.01023482057857219 0.006954092590162435 0 0 0
3193 1 3100.0 6.257630315130352e-05 0.014801088061034907 0.002495469663810368 0.008926527621305901 0 0 0
3194 1 3100.0 0.00010212219613301109 0.008312342982903936 0.0011992751893136842 0.008446771923268781 0 0 0
3195 1 3100.0 4.02229056256984e-06 0.01196941972570491 0.004218371948005682 0.01774222995725968 0 0 0
3196 1 3100.0 1.6489784564610518e-05 0.01324818850353275 0.0031924486967189543 0.0087544775598143 0 0 0
3197 1 3100.0 1.916619934866832e-05 0.004459882925859784 0.006729106181008283 0.008237962128909341 0 0 0
3198 1 3100.0 0.00010762316242612067 0.015900613581883116 0.013341919176738841 0.01916595293432917 0 0 0
3199 1 3100.0 8.778489262068486e-05 0.018750967847235317 0.009652848404283577 0.002140946697183747 0 0 0
3200 1 3100.0 5.7492699380842164e-05 0.0047793187243289955 0.001391298694133308 0.011676661223162839 0 0 0
3201 1 3100.0 1.2393026725748366e-05 0.01690806819767661 0.007708810446323108 0.004253876548986733 0 0 0
3202 1 3100.0 4e-05 0.01640268848728905 0.0009872996784948693 0.015495620675401629 0 0 0
3203 1 3100.0 1.1516533802137832e-05 0.01288967584188757 0.0037506075201083557 0.009284860969468105 0 0 0
3204 1 3100.0 7.161419248324299e-05 0.005584303604645392 0.002267693888808533 0.01598121442406013 0 0 0
3205 1 3100.0 0.0001717383823613907 0.014911332240763853 0.010330206384892592 0.0021879500185987347 0 0 0
3206 1 3100.0 4.332022446093853e-05 0.015589907169553765 0.019395436031800054 0.002413067441410023 0 0 0
3207 1 3100.0 2.4885119770481235e-05 0.00485621121055845 0.008684834053352063 0.0198732945376462 0 0 0
3208 1 3100.0 7.715792435225174e-05 0.0004044164500609763 0.0019121042241503554 0.00987269672138756 0 0 0
3209 1 3100.0 0.00010456898882152719 0.011507244677875485 0.006862656856694647 0.018217007978214163 0 0 0
3210 1 3100.0 1.9037625397195755e-05 0.0021158624764893667 0.0005291609340299801 0.0023065261479162393 0 0 0
3211 1 3100.0 4.714133836456848e-05 0.0015298809310317057 0.013875522949898928 0.008482874390922962 0 0 0
3212 1 3100.0 2.1555055223714076e-05 0.013788538032779138 0.009416688040198252 0.012188320452899642 0 0 0
3213 1 3100.0 7.163345095449572e-05 0.002064922846485415 0.01991645263546523 0.015359755857301228 0 0 0
3214 1 3100.0 9.935162577443707e-05 0.017427770800796025 0.012177773163448173 0.007503462325721611 0 0 0
3215 1 3100.0 6.572362400013411e-05 0.01606799402405182 0.00908975085829585 0.01927622916277019 0 0 0
3216 1 3100.0 6.78945197193096e-05 0.018937612368534692 0.019114771189562667 0.0013156607963982685 0 0 0
3217 1 3100.0 0.00010543664322285275 0.0015037354033715093 0.014492026555154438 0.004643891848651713 0 0 0
3218 1 3100.0 6.189350256659387e-06 0.0015581175712972059 0.00040500161147615773 0.005870233733206582 0 0 0
3219 1 3100.0 0.00015681987029582197 0.009272788586852251 0.013290582724756647 0.012057359570378805 0 0 0
3220 1 3100.0 0.000230498252968613 0.00989226330968209 0.010753214486757241 0.010193072699748222 0 0 0
3221 1 3100.0 6.163218426987404e-05 0.014872484942930572 0.01991725218558269 0.003453060655142757 0 0 0
3222 1 3100.0 7.167149525315378e-06 0.008310659337079172 0.0016162601237675164 0.0083084461258627 0 0 0
3223 1 3100.0 0.00017147495541637608 0.003224122772198047 0.01036333367807343 0.018905241110946176 0 0 0
3224 1 3100.0 0.00011709984104578217 0.01673887883344438 0.015809224329255266 0.004132424501446927 0 0 0
3225 1 3100.0 2.358742933341187e-05 0.019689449829994748 0.019342269372106605 0.013185023562155255 0 0 0
3226 1 3100.0 4e-05 0.0010966478318340717 0.019817650914531623 0.004017632623935309 0 0 0
3227 1 3100.0 0.0001202186775206886 0.010265654227820362 0.0077829895903062975 0.0036933317278268203 0 0 0
3228 1 3100.0 6.775810532214597e-05 0.013611280547535829 0.012923324927550158 0.002014884124943008 0 0 0
3229 1 3100.0 1.239358954019584e-05 0.00965993552953178 0.01876244829196476 0.015790866065527653 0 0 0
3230 1 3100.0 6.747031331016349e-05 0.013585016414399232 0.018331048559545118 0.0007713173823945328 0 0 0
3231 1 3100.0 6.65015662542924e-05 0.01743617337985296 0.0008292457819926904 0.013944671132874785 0 0 0
3232 1 3100.0 7.445051361628216e-05 0.005984196257683765 0.01237121265248268 0.0021773710108416076 0 0 0
3233 1 3100.0 0.00011568724572883114 0.010697056277398226 0.00224666738565245 0.006715733274187366 0 0 0
3234 1 3100.0 4.8427623555046524e-06 0.009528829282862271 0.0024351706606658453 0.008940581631184658 0 0 0
3235 1 3100.0 5.674244268246905e-05 0.000908241255568845 0.01471322237574463 0.019153019454362773 0 0 0
3236 1 3100.0 1.334218623596741e-05 0.01276963698662425 0.009819244665634117 0.01810999329546009 0 0 0
3237 1 3100.0 3e-05 0.0034032969267133195 0.005881967760433521 0.0013575971664382587 0 0 0
3238 1 3100.0 6.854156478972463e-06 0.013762708282519876 0.0010253748253148975 0.015983927077040425 0 0 0
3239 1 3100.0 2.0546470785417187e-05 0.0071413117980233445 0.018569471481391854 0.0073524175297657365 0 0 0
3240 1 3100.0 4e-05 0.0031666537346764336 0.00973032619280267 0.0014029839189863202 0 0 0
3241 1 3100.0 0.00021285743868850642 0.007184359269251005 0.001984959406086578 0.012467430097826573 0 0 0
3242 1 3100.0 1.3966994278476849e-05 0.00469832447789736 0.002524224224017413 0.0023857813099573432 0 0 0
3243 1 3100.0 6.887730471208758e-06 0.008462097156639217 0.012143024610389875 0.005213835795020068 0 0 0
3244 1 3100.0 0.00012966964903455858 0.014444807575235091 0.01912637399004756 0.01116604276004204 0 0 0
3245 1 3100.0 4e-05 0.001562373541043959 0.017841766475326367 0.00010581397422006165 0 0 0
3246 1 3100.0 0.00011044759888469365 0.014650830939197593 0.015077034481862837 0.0061388486200328355 0 0 0
3247 1 3100.0 6.606075822353923e-05 0.008806254479009248 0.0059989154450644745 0.003815048126013273 0 0 0
3248 1 3100.0 1.728780137589428e-05 0.010296587137107543 0.013156078531498113 0.015872697339600225 0 0 0
3249 1 3100.0 0.0002314379860136827 0.01863015095719825 0.0038878371542913066 0.019262450546802683 0 0 0
3250 1 3100.0 7.301180286227973e-05 0.0007427179501212729 0.000865327375584452 0.019757795214234927 0 0 0
3251 1 3100.0 3.4009511843414873e-06 0.012081545987717296 0.003197290741157524 0.017422814715951095 0 0 0
3252 1 3100.0 8.566479613125364e-06 0.004106718501442665 0.00048407150562710066 0.0068277309989249295 0 0 0
3253 1 3100.0 0.00019198917291741177 0.014431425510387775 0.010093802300826104 0.015900685216964902 0 0 0
3254 1 3100.0 0.00015962132567084463 0.0010417650491169504 0.0029699219964287797 0.0037830004161101857 0 0 0
3255 1 3100.0 0.00016969612894078274 0.012688861990119468 0.003803177307177573 0.01934288819251653 0 0 0
3256 1 3100.0 0.00010926886089286195 0.008607411926728117 0.010884484484249021 0.003947332465352118 0 0 0
3257 1 3100.0 4.707950554379781e-05 0.012894598421148418 0.0072042983231312445 0.008430979995817567 0 0 0
3258 1 3100.0 4e-05 0.015184451400925635 0.013320011977321486 0.004602627104316006 0 0 0
3259 1 3100.0 8.501774793922873e-05 0.019829188349358155 0.01001630952368171 0.012852024160922461 0 0 0
3260 1 3100.0 1.0719337279052127e-05 0.015175805714617251 0.000613774537605906 0.012267075384375825 0 0 0
3261 1 3100.0 8.366094976325194e-05 0.01362146475209309 0.017590308012544114 0.001532498043255152 0 0 0
3262 1 3100.0 8.799536935208387e-05 0.010149650939556077 0.005018522318655905 0.01164652779470353 0 0 0
3263 1 3100.0 7.021273905727953e-05 0.014391097793975528 0.003736760759364582 0.019765087085487607 0 0 0
3264 1 3100.0 6.706655586346947e-05 0.012789139522848806 0.017376202084222265 0.00222676872303895 0 0 0
3265 1 3100.0 8.611388773858064e-05 0.006470133447911596 0.010511731684283555 0.010256372221465852 0 0 0
3266 1 3100.0 8.503776790257838e-05 0.018822574428192636 0.00377480199379364 0.007280073798052702 0 0 0
3267 1 3100.0 9.925545264913184e-05 0.00044768466903177145 0.00940276781453648 0.0067928344505710034 0 0 0
3268 1 3100.0 6.450203534866329e-05 0.00718887518572999 0.013107489418452271 0.002827751382791877 0 0 0
3269 1 3100.0 4e-05 0.008272711849383095 0.009368277044558102 0.0006619793838247787 0 0 0
3270 1 3100.0 6.343335199758952e-05 0.0029103438409947687 0.006712186405550201 0.012900351758849122 0 0 0
3271 1 3100.0 6.806142178767289e-06 0.007109346027592278 0.006986910158662885 0.004304884722534472 0 0 0
3272 1 3100.0 4e-05 0.007215960290751858 0.002970271012553262 0.005653435811527823 0 0 0
3273 1 3100.0 8.079395220109118e-06 0.002602909707107416 0.01503440706470343 0.01962466152521408 0 0 0
3274 1 3100.0 9.01523558745425e-05 0.012191654908055436 0.005329828976837113 0.015733380482809575 0 0 0
3275 1 3100.0 0.00017536285406864865 0.0018207959957082006 0.018362131749467322 0.01522587014277033 0 0 0
3276 1 3100.0 9.63040939857504e-06 0.00658324283885519 0.017285775779630873 0.019391788347695515 0 0 0
3277 1 3100.0 5.4332415172467674e-06 0.01117028851225129 0.018688001650151113 0.007125587212917045 0 0 0
3278 1 3100.0 8.351611302537234e-05 0.004359918079210494 0.0026830894515457253 0.019088621217784388 0 0 0
3279 1 3100.0 7.148195434624552e-05 0.014839640816690057 0.01567980738904042 0.0040596292789887665 0 0 0
3280 1 3100.0 0.00020442596456724806 0.005540098506477362 0.004445798268246328 0.006652874889132359 0 0 0
3281 1 3100.0 1.3453363543695485e-05 0.0035326100053270112 0.008067276973069054 0.011758681688557007 0 0 0
3282 1 3100.0 1.6012268579120646e-05 0.008781827484928144 0.016742333156508256 0.010270405466264138 0 0 0
3283 1 3100.0 1.0038582678246091e-05 0.007635846592531426 0.012533728798838717 0.009089729685986304 0 0 0
3284 1 3100.0 7.754359804840133e-05 0.0010724858193105423 0.01309677935913741 0.007937698945911209 0 0 0
3285 1 3100.0 0.00020819921577354045 0.007820141645234415 0.009235062375211945 0.008552711345114466 0 0 0
3286 1 3100.0 1.1460475971216857e-05 0.010612208392578079 0.012007648420423204 0.015208462127988105 0 0 0
3287 1 3100.0 1.1491420353604813e-05 0.005409007149812029 0.016035025736686154 0.016801525783555885 0 0 0
3288 1 3100.0 5.135031273864513e-05 0.013460128642520304 0.00294201296665181 0.01619024140892405 0 0 0
3289 1 3100.0 4.813134136878476e-05 0.0198212715605609 0.0005628266964876473 0.015043156710852547 0 0 0
3290 1 3100.0 0.00013363589339542925 0.015674807832120708 0.003942643508427351 0.015358598904908533 0 0 0
3291 1 3100.0 1.15490468161011e-05 0.0009910199360563402 0.012716895643442276 0.016416903881526324 0 0 0
3292 1 3100.0 2.055174016617769e-05 0.0100676003944839 0.0029353382852684686 0.015880904619906492 0 0 0
3293 1 3100.0 9.67559560793815e-06 0.017047556340313595 0.009807438598478121 0.008268729065832032 0 0 0
3294 1 3100.0 5.292172089998245e-05 0.014515734818885538 0.00023789330995342017 0.005056612863942129 0 0 0
3295 1 3100.0 1.3375077120848537e-05 0.013988351031969003 0.017633749182683678 0.0023753738850936716 0 0 0
3296 1 3100.0 4.8500915543492026e-05 0.01963713938116833 0.0135421799603576 0.01183608421241725 0 0 0
3297 1 3100.0 6.349491352875927e-05 0.009787727711451569 0.005516250509211551 0.016647982610749738 0 0 0
3298 1 3100.0 8.476341932696104e-06 0.006404313976555413 0.007231903390306419 0.015745776580704703 0 0 0
3299 1 3100.0 2.887443641708859e-05 0.0008441767946755825 0.0002314752457066913 0.017994364529472354 0 0 0
3300 1 3100.0 1.588141157546781e-05 0.003413050874038327 0.01850597706315805 0.01303144467665252 0 0 0
3301 1 3100.0 8.21471045746397e-05 0.0026911142918984786 0.005521931566243616 0.00774134431628011 0 0 0
3302 1 3100.0 5.6899379121280646e-05 0.0019304516430944068 0.0017770666219118075 0.015015261876703823 0 0 0
3303 1 3100.0 6.333879316213381e-05 0.01852700138244435 0.001847686345886627 0.01437756969072396 0 0 0
3304 1 3100.0 0.00012607230936258055 0.0076552429171029765 0.01778160588360992 0.009586340539207691 0 0 0
3305 1 3100.0 1.0502664401449942e-05 0.015369270341268625 0.013642414622398933 0.0134688858916411 0 0 0
3306 1 3100.0 5.699602805706043e-06 0.01902739955899219 0.0118638607359091 0.0022350201426746333 0 0 0
3307 1 3100.0 1.3508377084223059e-05 0.010921555174579342 0.005540413057010369 0.019056309853310627 0 0 0
3308 1 3100.0 0.00011195986459027688 0.01205566351275398 0.0042526304080718405 0.013812413648819235 0 0 0
3309 1 3100.0 1.4929210633559411e-05 0.010511872853717146 0.01895745337712847 0.0085225441281709 0 0 0
3310 2 7870.0 0.0003 0.008957103749873612 0.009476129335121824 0.00500900909438661 0 0 0
3311 1 3100.0 1.2245834638370433e-05 0.014465695359416804 0.01590999149373055 0.006222769457159562 0 0 0
3312 1 3100.0 7.095954734026022e-05 0.012599165773637275 0.005260813065433236 0.015739457610462044 0 0 0
3313 1 3100.0 0.00011727718988342038 0.017276964033322063 0.00818684677970697 0.011418727478593219 0 0 0
3314 1 3100.0 8.376603380578898e-06 0.0003447070048252398 0.012285479968784173 0.015623976834019154 0 0 0
3315 1 3100.0 4.83617652079082e-05 0.017129499910248733 0.015419575493670627 0.003394068074161585 0 0 0
3316 1 3100.0 8.158540306137617e-06 0.011418874469730108 0.01670470894423431 0.0036699093747280405 0 0 0
3317 1 3100.0 1.9882596440795116e-05 0.013080796195945325 0.014611465204033188 0.002825538934391618 0 0 0
3318 1 3100.0 1.0721821041321591e-05 0.005555752585955723 0.01154128095323285 0.006624329073107891 0 0 0
3319 1 3100.0 0.00012478903428896486 0.010674801887555532 0.008382130343288193 0.011962784131019718 0 0 0
3320 1 3100.0 6.968748794632279e-05 0.0077652960293995545 0.00832907576753282 0.009434608933420205 0 0 0
3321 1 3100.0 1.9097386466708635e-05 0.006859974087293606 0.0058683381622948025 0.01671670191803766 0 0 0
3322 1 3100.0 4.335530132483082e-05 0.00863090597201892 0.009740111113234882 0.016305385094850664 0 0 0
3323 1 3100.0 0.0001459173450853065 0.00574845645726065 0.0023644123040138807 0.003285608754524157 0 0 0
3324 1 3100.0 6.438951826570952e-05 0.004300437738494367 0.0044487117584232246 0.011451389276041774 0 0 0
3325 1 3100.0 1.0882160330276968e-05 0.01407782844902897 0.0041388529999312595 0.014499612463211103 0 0 0
3326 1 3100.0 0.00012025504386859804 0.008264658765050073 0.0048585222104991325 0.013778464662869762 0 0 0
3327 1 3100.0 2.5790371064684207e-05 0.01445621010558623 0.016692071505038507 0.0015091410501069597 0 0 0
3328 1 3100.0 9.917400150439453e-06 0.01695542632914941 0.019574426673237444 0.01123990442081881 0 0 0
3329 1 3100.0 0.0001235707981262785 0.0008809261902970279 0.00731593114758253 0.018013233894243738 0 0 0
3330 1 3100.0 8.398072109983511e-05 0.00513875890606169 0.01666584591060747 0.017986431773579677 0 0 0
3331 1 3100.0 9.019355504535192e-05 0.013340051618748551 0.005616320931751683 0.0011942790271781791 0 0 0
3332 1 3100.0 8.641518844340246e-05 0.015387834317614367 0.007154231671426509 0.0013113385151715291 0 0 0
3333 1 3100.0 6.162430377499763e-05 0.010887097830561066 0.013372736085134958 0.01822412889128738 0 0 0
3334 1 3100.0 9.092804475583856e-05 0.015393328324361943 0.014157093934908585 0.003640956134435881 0 0 0
3335 1 3100.0 5.7270398174998004e-05 0.01837018790935548 0.01009839628803498 0.01635229758557487 0 0 0
3336 1 3100.0 2.404571230679121e-05 0.011293786174789837 0.017089167025537057 0.019549581010749925 0 0 0
3337 1 3100.0 1.2058860526193282e-05 0.0036964124676768092 0.00558301717713222 0.01717137029395556 0 0 0
3338 1 3100.0 6.101266880230407e-05 0.011617880260844394 0.014949637879043758 0.007473465620381846 0 0 0
3339 1 3100.0 6.723583743916247e-05 0.013265780360595999 0.013418436399962015 0.0007005433865987301 0 0 0
3340 1 3100.0 0.00011871694876398646 0.006505956787290837 0.0040905310226369875 0.0045274601230932176 0 0 0
3341 1 3100.0 4.070022219316606e-05 0.015829990744927747 0.009375306509114174 0.014405845309048098 0 0 0
3342 1 3100.0 0.00010609815640253953 0.008132985831462934 0.0031031465625901895 0.007740922502512853 0 0 0
3343 1 3100.0 1.820912218538092e-05 0.015404488551497038 0.005798251694088043 0.0005220367282622526 0 0 0
3344 1 3100.0 6.665384298062553e-05 0.015099208604843798 0.011864357615621806 0.0185944421965378 0 0 0
3345 1 3100.0 7.549082995281201e-05 0.002906117587470171 0.01678654798185679 0.004072335325467522 0 0 0
3346 1 3100.0 0.00012636914748228296 0.016215992761215124 0.0004266133436774185 0.003762655797059508 0 0 0
3347 1 3100.0 5.983841445114722e-06 0.011789946270803753 0.01074370333503887 0.003438728443735964 0 0 0
3348 1 3100.0 0.0001632437651200212 0.010566465018255217 0.013370965434902965 0.01753869681611892 0 0 0
3349 1 3100.0 3e-05 0.0020516378024942497 0.012306616068411552 0.003621437152315877 0 0 0
3350 1 3100.0 6.826010225516205e-05 0.015346652811639817 0.0008776950488233318 0.01292262434590479 0 0 0
3351 1 3100.0 0.00014117282716839016 0.016660516138380654 0.017025585637463814 0.017549176506837308 0 0 0
3352 1 3100.0 4.2703722715952365e-05 0.01631095808736399 0.01877520828757694 0.012331937380575473 0 0 0
3353 1 3100.0 0.00013723307935771512 0.005464575912438499 0.005467876692361183 0.002068569481515515 0 0 0
3354 1 3100.0 0.0001392297273489719 0.007000137753700467 0.0037139972481203135 0.01697445880576554 0 0 0
3355 1 3100.0 1.0074271268241433e-05 0.0038572743787034553 0.01195041918141726 0.007237801695795211 0 0 0
3356 1 3100.0 1.5162016924750111e-05 0.004038825147682186 0.00186342568920584 0.0021850817932122842 0 0 0
3357 1 3100.0 3e-05 0.019519570436651004 0.018850994237896098 0.005304639832784268 0 0 0
3358 1 3100.0 1.2509278774428661e-05 0.019476420785971796 0.005474600824759863 0.000762479851365385 0 0 0
3359 1 3100.0 4.733046596234803e-06 0.015821479578164734 0.008125250049044805 0.01454347526798246 0 0 0
3360 1 3100.0 4.758252778134367e-05 0.01646493010158583 0.013907909765782494 0.019018897518456982 0 0 0
3361 1 3100.0 0.00014941014464874382 0.005552297520745864 0.006811236905890689 0.003699665987233898 0 0 0
3362 1 3100.0 0.00018007128975270446 0.0038456395726926967 0.01963350738350589 0.01792391593254591 0 0 0
3363 1 3100.0 7.91208641445758e-06 0.017075005954147907 0.005030608793831893 0.006843225675148091 0 0 0
3364 1 3100.0 1.2178943695019064e-05 0.013115412358262009 0.0066020817174392826 0.017717091761496 0 0 0
3365 1 3100.0 1.1359066878065925e-05 0.010136239554954265 0.012605116491150085 0.00039013216007242587 0 0 0
3366 1 3100.0 8.001623155374604e-05 0.00845701476181319 0.009074768759054488 0.006058236928291827 0 0 0
3367 1 3100.0 9.0724478049914e-05 0.0010180483116717556 0.007650702516150001 0.013315256287294967 0 0 0
3368 1 3100.0 0.00012621893039542156 0.01338021256167938 0.018048592654793125 0.004814039630769564 0 0 0
3369 1 3100.0 0.00014285086078657651 0.010034810334287762 0.018361735875514047 0.014918480393110837 0 0 0
3370 1 3100.0 0.00012056366800017406 0.01898717155185562 0.01969469878750439 0.009279758741732634 0 0 0
3371 1 3100.0 0.0002724930274423212 0.013870485837594372 0.012742863746902111 0.006236454779980213 0 0 0
3372 1 3100.0 1.0232863248755047e-05 0.011699559273754118 0.013547525162704185 0.018997459297976586 0 0 0
3373 1 3100.0 9.985280745775225e-05 0.0033533381607512903 0.013765870422518537 0.0014729070565186943 0 0 0
3374 1 3100.0 2.3773979463745865e-05 0.01334776349750634 0.008488922957058923 0.014283549612428907 0 0 0
3375 1 3100.0 1.3908357932398794e-05 0.014516564783988875 0.01299385425331079 0.005669365833217713 0 0 0
3376 1 3100.0 7.839736262503616e-05 0.012252240437674417 0.01578525439005549 0.018531602479691194 0 0 0
3377 1 3100.0 0.00016025277774224853 0.003924520209690492 0.006822006040830412 0.016043869261655474 0 0 0
3378 1 3100.0 0.0001389007635604139 0.019345204537315155 0.00641237511111378 0.0012347540914603617 0 0 0
3379 1 3100.0 0.00014360778447633282 0.017720386688232198 0.00989383310494426 0.014976953316618916 0 0 0
3380 1 3100.0 0.00011760961450370288 0.004380352515077342 0.0006659030724680672 0.00755791962920517 0 0 0
3381 1 3100.0 1.3644168682616564e-05 0.006553915621743175 0.019493218277015664 0.01326765905764574 0 0 0
3382 1 3100.0 0.00012515202787963148 0.01785240651285725 0.002370989623834141 0.002827752582794664 0 0 0
3383 1 3100.0 4.190115450485242e-05 0.0096360276725312 0.013191797146526548 0.016695494489323105 0 0 0
3384 1 3100.0 1.4848379035583511e-05 0.01172301435330003 0.0009387416242770484 0.0011264098549010606 0 0 0
3385 1 3100.0 9.696106514925681e-05 0.004068727264142998 0.0007248899106609922 0.014000150803914877 0 0 0
3386 1 3100.0 9.485413907369999e-06 0.00564296512605448 0.005051900421849271 0.01995434275944466 0 0 0
3387 1 3100.0 0.00011005233022008727 0.002270951576755792 0.019195691949618916 0.009115936018719515 0 0 0
3388 1 3100.0 3e-05 0.005689306776167109 0.016846376562530574 0.014844587754029016 0 0 0
3389 1 3100.0 7.892896851983643e-05 0.017807641070104307 0.01977002016250973 0.002659601490828952 0 0 0
3390 1 3100.0 0.00010033178047868507 0.013930042811341733 0.019298555286409894 0.015827428368126152 0 0 0
3391 1 3100.0 1.1656533107261176e-05 0.004734169659091838 0.017541233197267116 0.002437031499724435 0 0 0
3392 1 3100.0 9.522371291147186e-05 0.017001863272859068 0.015129020335941663 0.013595375410449128 0 0 0
3393 1 3100.0 8.264400094922411e-05 0.012060479242485421 0.019108660680856166 0.005269369713703792 0 0 0
3394 1 3100.0 4.692781756018975e-06 0.018041356878757173 0.017873654806739647 0.0011183495407867089 0 0 0
3395 1 3100.0 2.800433586102775e-05 0.019059789556592488 0.000840958130388904 0.017596546111580316 0 0 0
3396 1 3100.0 0.00013980704655865183 0.0025853413958907183 0.005124062940258185 0.0038037779193068385 0 0 0
3397 1 3100.0 8.444277459019906e-05 0.0035892652101141525 0.013916731123355355 0.015007327963018605 0 0 0
3398 1 3100.0 1.1864692650627e-05 0.01625585984663111 0.00903362822602044 0.010424046502643282 0 0 0
3399 1 3100.0 1.3470283625382638e-05 0.008012013786149816 0.010822368547702918 0.011298487004782198 0 0 0
3400 1 3100.0 0.00017504422037678888 0.015900444056329132 0.009669750281171922 0.0064572526659898875 0 0 0
3401 1 3100.0 1.7228710089810253e-05 0.007508149953841381 0.009172859545408314 0.0021067754366366266 0 0 0
3402 1 3100.0 0.00022615222420717778 0.011244245934848412 0.01260691898705521 0.0038324327665095258 0 0 0
3403 1 3100.0 9.57004792469392e-05 0.01373242453388102 0.0004421902788332249 0.004594708548516417 0 0 0
3404 1 3100.0 5.9227640934017984e-05 0.013975530031560589 0.0015186873160137166 0.012925498468995895 0 0 0
3405 1 3100.0 7.639547275728986e-06 0.014048442652873333 0.014809824050719374 0.0023195142797498435 0 0 0
3406 1 3100.0 4e-05 0.009981461044203947 0.014807159154857282 0.006491179481735309 0 0 0
3407 1 3100.0 1.8255674570331892e-05 0.004403663255899896 0.01275575497102417 0.0003175354886842103 0 0 0
3408 1 3100.0 0.0001223383717544785 0.006751460985487259 0.01128150920228812 0.0021106852019999525 0 0 0
3409 1 3100.0 9.817205409898994e-05 0.0036751858193915976 0.0046547591851504545 0.01727625001771234 0 0 0
3410 1 3100.0 2.1503140269003722e-05 0.018320201305060388 0.00703201521509968 0.00865654952226574 0 0 0
3411 1 3100.0 3.537537154235935e-06 0.01852741825119042 0.008861719944133458 0.015215221891479728 0 0 0
3412 1 3100.0 5.3237423854091147e-05 0.007287040698413178 0.0037154486247715675 0.001628392719957222 0 0 0
3413 1 3100.0 0.0001602598554794766 0.015758693011506654 0.0162129599230414 0.0008218152021379157 0 0 0
3414 1 3100.0 1.1312326723825687e-05 0.01272091448190813 0.010604136615661699 0.01455404473450644 0 0 0
3415 1 3100.0 7.675051211191968e-05 0.018395275986044398 0.015637265026196612 0.006527784800072012 0 0 0
3416 1 3100.0 2.8704024353919853e-05 0.0113001764851984 0.004415027281107625 0.0006100058244030063 0 0 0
3417 1 3100.0 5.41270570062884e-05 0.005520829357550081 0.01941379337830139 0.01140784364244043 0 0 0
3418 1 3100.0 3e-05 0.01773961310626905 0.0066773309606962495 0.0038357696780822645 0 0 0
3419 1 3100.0 9.548513413701489e-06 0.01386270040892413 0.014181059332907557 0.0014197077562608268 0 0 0
3420 1 3100.0 7.465846746035232e-05 0.010745401680004868 0.01434986472824502 0.008393917384097999 0 0 0
3421 1 3100.0 1.7578174723260457e-05 0.017239435545284506 0.007732716607110274 0.014913337423933751 0 0 0
3422 1 3100.0 7.642933305874799e-05 0.006798596394453863 0.0027717102595452986 0.01128864688509728 0 0 0
3423 1 3100.0 2.4924661223087464e-05 0.007190257827661908 0.005719875492693876 0.006882007800926315 0 0 0
3424 1 3100.0 0.0001313826300949669 0.0027802781594323026 0.009524446798800892 0.01720831067322748 0 0 0
3425 1 3100.0 1.2404668120780231e-05 0.0016927768560836452 0.0044469143284697745 0.009267096868014786 0 0 0
3426 1 3100.0 8.874020698199302e-05 0.0037147480012205206 0.01960950249396339 0.01624583047847789 0 0 0
3427 1 3100.0 4.346793163305437e-06 0.004890732258605103 0.008648747636195421 0.01438404354366538 0 0 0
3428 1 3100.0 8.749204329481597e-06 0.008637461107553597 0.011126620089087625 0.019604070718817704 0 0 0
3429 1 3100.0 2.6503117205201592e-05 0.003151035610026589 0.005388281668053042 0.010402665272915891 0 0 0
3430 1 3100.0 0.00014719829057443533 0.014009261544000532 0.009271093006435643 0.005624702996333146 0 0 0
3431 1 3100.0 0.00016173311082853993 0.016365036808630638 0.01639490195861579 0.0023217625898685037 0 0 0
3432 1 3100.0 1.66752712350186e-05 0.018489522462306236 0.004109466052526412 0.004624584741985803 0 0 0
3433 1 3100.0 4e-05 0.004356460758069136 0.014993757862189488 0.013129727934181903 0 0 0
3434 1 3100.0 6.733043585893242e-05 0.008079184059057453 0.003924689073336455 0.005749224440214633 0 0 0
3435 1 3100.0 0.0001015437461976282 0.01731816082211498 0.016232292751195802 0.013993619660054331 0 0 0
3436 1 3100.0 1.3741691631375367e-05 0.01107833759862678 0.005860175565056875 0.0025569941778299126 0 0 0
3437 1 3100.0 1.782130627005649e-05 0.002994555714768383 0.0033727623518335728 0.018866984412156552 0 0 0
3438 1 3100.0 7.224598529860738e-06 0.005807992919176824 0.0065094196098728786 0.0070327196107341314 0 0 0
3439 1 3100.0 0.00017117552266995647 0.00256351064637213 0.009293031611851537 0.017960396098527117 0 0 0
3440 1 3100.0 7.25243668486075e-06 0.014641736663906193 0.017622417258661576 0.00857508814523137 0 0 0
3441 1 3100.0 0.00017774008020242488 0.012227184173945792 0.017454956262197164 0.013408159872877565 0 0 0
3442 1 3100.0 0.00013900679214529487 0.010277698005750928 0.008386200083499825 0.004667022366139159 0 0 0
3443 1 3100.0 0.00010949030623928938 0.01855625467191655 0.010172506594799983 0.00024652587671295136 0 0 0
3444 1 3100.0 1.669839552038497e-05 0.0174048919475771 0.0012418779176901786 0.0014078751351887621 0 0 0
3445 1 3100.0 7.345148284457237e-05 0.001767139945458805 0.015631953404074393 0.004883856593689639 0 0 0
3446 1 3100.0 7.295740166349686e-06 0.006982727410459208 0.0022195657165365312 0.005939589816731447 0 0 0
3447 1 3100.0 8.786523160135147e-05 0.01786066314844534 0.00847201461262249 0.01180616530283887 0 0 0
3448 1 3100.0 1.4021010774251263e-05 0.007483353677008706 0.007188013809544921 0.0018842233836180822 0 0 0
3449 1 3100.0 6.895568963542982e-05 0.013468441616622627 0.007766835803567476 0.01685229223188248 0 0 0
3450 1 3100.0 1.20476343591565e-05 0.017243369938440573 0.018151600552862208 0.01653494009320382 0 0 0
3451 1 3100.0 4e-05 0.006858810496779131 0.00504297019524293 0.015175625356805592 0 0 0
3452 1 3100.0 1.341091512963753e-05 0.012819395216305275 0.004602659129691659 0.013149833594758896 0 0 0
3453 1 3100.0 3e-05 0.009050322782630307 0.016214374643992308 0.009629185385951483 0 0 0
3454 1 3100.0 2.4819170696399893e-05 0.012068246059301648 0.016385471677262918 0.0064446737625043 0 0 0
3455 1 3100.0 7.585199725929679e-05 0.017854451246876093 0.006398562517423516 0.008813641010329148 0 0 0
3456 1 3100.0 0.00017112169823534315 0.01962227358521156 0.014863566084143376 0.003730960643883468 0 0 0
3457 1 3100.0 9.091761579900385e-06 0.008873917833401579 0.004935054916124561 0.009914131083853257 0 0 0
3458 1 3100.0 8.309181021908882e-05 0.017391522106265215 0.010796186096140829 0.010658182946092254 0 0 0
3459 1 3100.0 1.1548431720716651e-05 0.014757469183688093 0.017372541879276157 0.002237862340850004 0 0 0
3460 1 3100.0 0.00027834304989040644 0.00870045212233538 0.007349671902496541 0.01026645096869717 0 0 0
3461 1 3100.0 2.1882790504967415e-05 0.01514592079961438 0.006759652534946387 0.00019696507176074582 0 0 0
3462 1 3100.0 0.00014511024156210829 0.004112669546572492 0.010383079828815546 0.016583791848243892 0 0 0
3463 1 3100.0 4e-05 0.004587301364138465 0.007955570593769435 0.016003097038343697 0 0 0
3464 1 3100.0 7.742338986731463e-06 0.015881517269756396 0.007986934674290727 0.013836416978493974 0 0 0
3465 1 3100.0 1.6933748846069256e-05 0.010264439168483392 0.00264678253647612 0.0014657454847994407 0 0 0
3466 1 3100.0 1.4181399752551447e-05 0.013340201026654798 0.016807422586677646 0.013080999082767254 0 0 0
3467 1 3100.0 3e-05 0.013911546475702558 0.00534803509259475 0.015026521414629384 0 0 0
3468 1 3100.0 0.00010466735403098063 0.01534886482933359 0.017116961182144046 0.0168661137652021 0 0 0
3469 1 3100.0 8.283900893377605e-06 0.009422845059490221 0.016317790411923126 0.00621133567215942 0 0 0
3470 1 3100.0 0.00011662615978691858 0.014480563686791313 0.01001722018636254 0.01620586587022457 0 0 0
3471 1 3100.0 0.0001151396070518178 0.016143706078373524 0.015633405748877924 0.00956410011125387 0 0 0
3472 1 3100.0 3e-05 0.009743059430242455 0.010754915213330041 0.018876146559827556 0 0 0
3473 1 3100.0 8.043728451758021e-05 0.01989761930702656 0.005694673635826725 0.007518640963678876 0 0 0
3474 1 3100.0 5.3568905731196043e-05 0.0011869572202249628 0.0169891271142299 0.0001734284234710441 0 0 0
3475 1 3100.0 0.00011269206651033756 0.017358093322952607 0.0006755846778180346 0.011140248329174453 0 0 0
3476 1 3100.0 1.3542973721011631e-05 0.002713850515179923 2.8325443079539283e-05 0.015744769259204542 0 0 0
3477 1 3100.0 1.7741134518720458e-05 0.009318616756435544 0.017233982859934327 0.0017311262299856537 0 0 0
3478 1 3100.0 0.00021408260742089298 0.0017424282693016026 0.0059762963307430205 0.008207017764083764 0 0 0
3479 1 3100.0 8.826804791370792e-05 0.016288942646268012 0.000359424595110702 0.014799760838791141 0 0 0
3480 1 3100.0 0.00012709959921663447 0.017476885256887318 0.0017815051996758874 0.004892488201309705 0 0 0
3481 1 3100.0 9.223554295906208e-06 0.00626810020433967 0.006883620894483497 0.012725123523706371 0 0 0
3482 1 3100.0 1.780140172760447e-05 0.005313495949987527 0.018050657691710367 0.019784095149828547 0 0 0
3483 1 3100.0 5.5537091291969176e-05 0.0040529694836664056 0.004577525101172031 0.008964062007267024 0 0 0
3484 1 3100.0 0.00022406516213508196 0.01912181359145112 0.015719488053313923 0.0060419254747190315 0 0 0
3485 1 3100.0 1.8208933673502403e-05 0.017643050936036627 0.011611511634236847 0.018067927695968707 0 0 0
3486 1 3100.0 9.367962710205586e-06 0.012122114701565892 0.009386244676761803 0.00596668761830142 0 0 0
3487 1 3100.0 6.799403215978627e-05 0.015844584959990544 0.0026427212476429272 0.01764704308491008 0 0 0
3488 1 3100.0 7.45349075747334e-05 0.011496841145836094 0.007012472342581993 0.01702249437409145 0 0 0
3489 1 3100.0 1.6002126287855482e-05 0.013571641384524196 0.004389170594562792 0.005076945975997158 0 0 0
3490 1 3100.0 4.898637246742572e-06 0.0018837316851768743 0.015534509799668278 0.005021644255219249 0 0 0
3491 1 3100.0 3.941653455402754e-06 0.017338854754405466 0.0013034041294971647 0.019942747703196026 0 0 0
3492 1 3100.0 8.14841674013981e-05 0.004455147005953709 0.018863111414715923 0.000850176693219808 0 0 0
3493 1 3100.0 1.0281538028689692e-05 0.00020290999323523695 0.0014801477543325506 0.008412271730389786 0 0 0
3494 1 3100.0 6.32875159750448e-05 0.008701344797309779 0.012135426457777642 0.00886123086147242 0 0 0
3495 1 3100.0 0.00013808287233151376 0.019448408946152046 0.018610668564920683 0.0014632828824270036 0 0 0
3496 1 3100.0 0.00011559722203729556 0.01979327553316916 0.005278131845863945 0.019586590012140977 0 0 0
3497 1 3100.0 7.661709293169299e-06 0.009341931626776394 0.01239388214734351 0.010392053919733732 0 0 0
3498 1 3100.0 0.00010549176962692607 0.003323150457872379 0.00038365726990735415 0.013163438620234004 0 0 0
3499 1 3100.0 0.0001568083785410393 0.009625206228211794 0.00653360373805387 0.0060743232419497376 0 0 0
3500 1 3100.0 0.0002636826924630292 0.0037437603844958354 0.01898712599633871 0.01318902802118141 0 0 0
3501 1 3100.0 0.00010294374622467071 0.013379931488970362 0.013285166882197736 0.0011675545344805134 0 0 0
3502 1 3100.0 0.0001073260789217276 0.010745344051185664 0.005742524841580316 0.0074675598116080676 0 0 0
3503 1 3100.0 9.806717709111251e-05 0.016451189049263275 0.0027725253532362016 0.01903955504090134 0 0 0
3504 1 3100.0 1.3140145676832206e-05 0.017285922752037906 0.005785149567472668 0.005528600902556561 0 0 0
3505 1 3100.0 0.00015173290978520094 0.015702247935457863 0.0038154352420811657 0.013745341053541006 0 0 0
3506 1 3100.0 6.952061331353921e-05 0.015167361680944014 0.008235763310997214 8.865135252248678e-05 0 0 0
3507 1 3100.0 7.713111793054785e-05 0.014706273912336658 0.014864866283439943 0.0020017382483664397 0 0 0
3508 1 3100.0 9.316545998463254e-05 0.015208266461984756 0.0024348784740569193 0.009310805813195457 0 0 0
3509 1 3100.0 2.9778147420153367e-05 0.002231695573201821 0.006524484219984209 0.006406926147937371 0 0 0
3510 1 3100.0 7.215001323595227e-05 0.012436100602633272 0.012122535803369252 0.0011656567890004248 0 0 0
3511 1 3100.0 6.898375264668074e-05 0.01570007475441661 0.01024831926874166 0.01055413040999524 0 0 0
3512 1 3100.0 8.79058074616391e-05 0.0022711316383670094 0.018047289130287178 0.010855998255238851 0 0 0
3513 1 3100.0 6.904941322411407e-05 0.0032526960153580683 0.019191956822962257 0.0032609059640325813 0 0 0
3514 1 3100.0 0.0001932788664510678 0.01844528933914339 0.016966515334021662 0.0035488319549772454 0 0 0
3515 1 3100.0 1.4907308684287876e-05 0.008126106030560881 0.005085449307693687 0.019465828710991794 0 0 0
3516 1 3100.0 0.00019282468910707684 0.010807562129452025 0.013074643703090255 0.0029913778823719315 0 0 0
3517 1 3100.0 9.880070439059212e-05 0.012742376122269142 0.016078375971826864 0.003247899154575686 0 0 0
3518 1 3100.0 4.388822061796107e-05 0.012343365090248531 0.013153603524013024 0.004860341002900005 0 0 0
3519 1 3100.0 0.00017143696514730584 0.018877943315450754 0.011392031663219731 0.007532147639995913 0 0 0
3520 1 3100.0 6.470682642223356e-05 0.01373182786334944 0.0015654728119226025 0.01202928494686378 0 0 0
3521 1 3100.0 2.120976098597671e-05 0.005070520176487542 0.007864039595415324 0.016308730101544367 0 0 0
3522 1 3100.0 3e-05 0.018084753189710007 0.01780772501878345 0.006868332040492176 0 0 0
3523 1 3100.0 8.922968247513112e-05 0.015242157159115479 0.009405266678331598 0.019643970479765783 0 0 0
3524 1 3100.0 0.00011697169905246403 0.0015925300587513332 0.009613582669953009 0.014397505338709581 0 0 0
3525 1 3100.0 6.779100603920359e-05 0.0037556845264283146 0.013884481977522876 0.001238256262954521 0 0 0
3526 1 3100.0 0.0001210223680677218 0.0055898152813455065 0.00732082992064002 0.007960232416950411 0 0 0
3527 1 3100.0 8.926431624591657e-05 0.01580114689632337 0.01249594226711221 0.004128944370545707 0 0 0
3528 1 3100.0 1.4136905791565534e-05 0.011179013453763825 0.008493879585130116 0.009581812420020147 0 0 0
3529 1 3100.0 5.1882884605961076e-05 0.009656895431383322 0.009097379942683668 0.00040966125124365367 0 0 0
3530 1 3100.0 0.00012607316415830813 0.0030100254144393114 0.017491126879840793 0.006391366473631237 0 0 0
3531 1 3100.0 0.00024943670170619013 0.013076299583368131 0.016811165573473695 0.013509862563783379 0 0 0
3532 1 3100.0 7.800566620014417e-05 0.018346163276059365 0.004420989988992768 0.00034292556534903647 0 0 0
3533 1 3100.0 1.3526094042494485e-05 0.01992853757057722 0.017459480414416414 0.006953556498098755 0 0 0
3534 1 3100.0 9.154711089554365e-06 0.0012486828991406381 0.007933712297220926 0.00743055919410523 0 0 0
3535 1 3100.0 7.166989241299782e-05 0.011492972289638893 0.0015128207312570347 0.0017370762208316311 0 0 0
3536 1 3100.0 5.014040330426576e-06 0.002259102213778148 0.0017511722992026707 0.006724130710744492 0 0 0
3537 1 3100.0 1.0570111435900762e-05 0.016102930884296932 0.01896761763301684 0.015352282087468078 0 0 0
3538 1 3100.0 1.0620102640381408e-05 0.013100406916623503 0.004100634438868555 0.01026414219983084 0 0 0
3539 1 3100.0 0.0002112277007793252 0.007637586709438198 0.016613290734945284 0.012005896953094168 0 0 0
3540 1 3100.0 1.5146104078939884e-05 0.012046388737439967 0.01828159092536994 0.005213720112865255 0 0 0
3541 1 3100.0 0.0001463055297575943 0.008516042146918706 0.011476032307813596 0.010014642907137487 0 0 0
3542 1 3100.0 0.00014108517389694217 0.007523768403477334 0.010547656126629088 0.001056615515851218 0 0 0
3543 1 3100.0 1.3243052476305434e-05 0.010926214356195956 0.010240604719186877 0.01244650125428859 0 0 0
3544 1 3100.0 9.428160023744424e-06 0.0024599139980314294 0.002975855266317473 0.014062178389324468 0 0 0
3545 1 3100.0 0.0001136791241351116 0.009421114768626055 0.00034609726587459303 0.01702397127733022 0 0 0
3546 1 3100.0 6.508458106699918e-05 0.0009152135185009519 0.019663968541101456 0.002019534221855502 0 0 0
3547 1 3100.0 6.382680699547466e-05 0.0028559899550927373 0.005077039583347777 0.014743403514477853 0 0 0
3548 1 3100.0 1.718751537732576e-05 0.01952912599025618 0.01979635670558749 0.01615562160197075 0 0 0
3549 1 3100.0 1.7587126065826458e-05 0.016723336920967252 0.01736415362486738 0.004135469667453222 0 0 0
3550 1 3100.0 2.1042495888931226e-05 0.0112445369053022 0.01948746293503798 0.0011432368165976688 0 0 0
3551 1 3100.0 5.1654129545490495e-05 0.010714509435988511 0.001299300643064509 0.011344443840952761 0 0 0
3552 1 3100.0 0.00017669448935666774 0.0185397713682309 0.008550266046146032 0.009912341219236055 0 0 0
3553 1 3100.0 6.75297582417368e-05 0.004704389618848979 0.01987287592053681 0.018825780567535144 0 0 0
3554 1 3100.0 0.0002648085436627821 0.005759562542169662 0.007654423567162419 0.014659780918803522 0 0 0
3555 1 3100.0 6.31997907235779e-05 0.017414654075890337 0.002571808346876524 0.002515563587258951 0 0 0
3556 1 3100.0 6.257942298689465e-05 0.011168501997260157 0.00845691358134405 0.01547931454518301 0 0 0
3557 1 3100.0 0.00013322502228731948 0.013486889639363718 0.016141382572688896 0.004231746590166186 0 0 0
3558 1 3100.0 1.6572155788700137e-05 0.010271576201843881 0.014407701377126634 0.01747153321871858 0 0 0
3559 1 3100.0 5.649870607891055e-06 0.013710190179809241 0.01034331467132267 0.004796082528364476 0 0 0
3560 1 3100.0 4e-05 0.008532745358086933 0.0008098539207256301 0.00924430493556618 0 0 0
3561 1 3100.0 7.340434785240074e-05 0.01960850184595101 0.004641673118540574 0.010551821015416898 0 0 0
3562 1 3100.0 6.212147163892596e-05 0.011568528953982722 0.007308412134377603 0.005473533912009817 0 0 0
3563 1 3100.0 6.956692152501117e-05 0.007369319640336274 0.012531155562805455 0.00029988153022339546 0 0 0
3564 1 3100.0 5.561450472550157e-05 0.007362535035465066 0.016790608810509727 0.01628460049572737 0 0 0
3565 1 3100.0 1.7536380228443392e-05 0.010837597862066133 0.0017432437505611905 0.009286362778326477 0 0 0
3566 1 3100.0 5.2709284521461085e-05 0.004428183727908959 0.01697325288956657 0.004858748841666217 0 0 0
3567 1 3100.0 9.561901532854549e-05 0.009462501843620448 0.011881148881970258 0.00444797529746434 0 0 0
3568 1 3100.0 6.760683853136045e-05 0.0031982781935020925 0.018710623521386464 0.0008205375639581906 0 0 0
3569 1 3100.0 0.0002518792512742588 0.004587484969229493 0.013541649030259215 0.0017579086643147253 0 0 0
3570 1 3100.0 0.0001036464561805195 0.00034161227427153624 0.017276252321705526 0.004999558692753692 0 0 0
3571 1 3100.0 2.2228946121699345e-05 0.003496539232752979 0.003485251587598933 0.0028194651119703824 0 0 0
3572 1 3100.0 0.0001031257588625503 0.01064519423214207 0.007564601117855009 0.0070950474957434725 0 0 0
3573 1 3100.0 1.571954287263556e-05 0.014996435036661485 0.01760905509026869 0.007713160111564434 0 0 0
3574 1 3100.0 1.7477713191656843e-05 0.012421843697445575 0.011172190200216689 0.009354666165285535 0 0 0
3575 1 3100.0 5.1640207227700084e-06 0.011726604629668885 0.008040478338140825 0.01001827417140142 0 0 0
3576 1 3100.0 6.45503718967947e-05 0.006641153999001771 0.008718656566075773 0.008689606193036195 0 0 0
3577 1 3100.0 2.0851352750963592e-05 0.006270837072733881 0.013348444097239145 0.0012374265724415868 0 0 0
3578 1 3100.0 4e-05 0.004321432971164505 0.017657672815103446 0.0018716167958606443 0 0 0
3579 1 3100.0 4.076571805246364e-05 0.01271340359593774 0.011371211051369226 0.01378023605185403 0 0 0
3580 1 3100.0 0.0001078013875726824 0.010384673338972767 0.0023410957732061554 0.008343703393731822 0 0 0
3581 1 3100.0 1.2740792666506179e-05 0.011707411285047884 0.0030817240250151125 0.002725446395751488 0 0 0
3582 1 3100.0 7.631582191014464e-05 0.01751650130178375 0.0078346556424788 0.006597256625044085 0 0 0
3583 1 3100.0 0.000115264411155711 0.003954781155327148 0.005791785616811581 0.017091761778034842 0 0 0
3584 1 3100.0 6.776725406914779e-05 0.006903447922084445 0.0004614345374461823 0.004059079508794933 0 0 0
3585 1 3100.0 0.00010214686283427757 0.01701885648110443 0.0062298261520812226 0.006908143319325131 0 0 0
3586 1 3100.0 1.0036892192349432e-05 0.017077654480461314 0.013435602174117251 0.015880635634746905 0 0 0
3587 1 3100.0 0.0001465431709753525 0.011041970456600922 0.01939003326513341 0.0007053358324299904 0 0 0
3588 1 3100.0 8.609474590893761e-05 0.012424464185935872 0.007517061647469861 0.0072648460519080865 0 0 0
3589 1 3100.0 3e-05 0.0052602566369268754 0.016109415107547858 0.018346475178704386 0 0 0
3590 1 3100.0 3e-05 0.017542155252837317 0.010680936863904457 0.005379143645339335 0 0 0
3591 1 3100.0 5.618930553072078e-05 0.009381335464176577 0.016699034456986672 0.01163754964919479 0 0 0
3592 1 3100.0 6.311789938750302e-05 0.011889469857312882 0.014894773135142614 0.019284742149271443 0 0 0
3593 1 3100.0 0.00019375788231450178 0.008483533845108878 0.003720269018482571 0.0076377900562849335 0 0 0
3594 1 3100.0 2.293290607565421e-05 0.000131843646008884 0.006836051483454755 0.013626022834329317 0 0 0
3595 2 7870.0 0.0003 0.01822822962365714 0.018061040172190655 0.005659896693799982 0 0 0
3596 1 3100.0 9.989644066310245e-05 0.0018725764849682454 0.005486437101173057 0.0049835641487058265 0 0 0
3597 1 3100.0 3e-05 0.016849011472757847 0.004586582746335995 0.015496522809240137 0 0 0
3598 1 3100.0 0.00011445111384267508 0.016366809593127675 0.01944783722220018 0.0009031642008700267 0 0 0
3599 1 3100.0 4e-05 0.01032878196592861 0.00882406010649223 0.01927072400368443 0 0 0
3600 1 3100.0 9.888900396466415e-05 0.005103642896435222 0.006830413299718698 0.00768465031793985 0 0 0
3601 1 3100.0 9.029027503779024e-05 0.011787666884040884 0.01758267257435708 0.01320719993530387 0 0 0
3602 1 3100.0 0.00011057993843304508 0.005148821566276604 0.010547382635222972 0.013559973207795081 0 0 0
3603 1 3100.0 0.00010240121951416768 0.0045919743628698865 0.016627168866601746 0.0016475144248450186 0 0 0
3604 1 3100.0 5.5337966539168134e-05 0.006196754427179006 0.009991293099238605 0.0035819758765721723 0 0 0
3605 1 3100.0 0.0001543120362383301 0.012523316185220637 0.009524916683496963 0.006335002834702818 0 0 0
3606 1 3100.0 1.3126698037166761e-05 0.007418446083480222 0.011913554815713524 0.010747813068923737 0 0 0
3607 1 3100.0 5.901589485170916e-05 0.0013451411262971234 0.0042699636362102 0.009444946414177494 0 0 0
3608 1 3100.0 3e-05 0.0009490963221673819 0.005463561227778785 0.017756370963269725 0 0 0
3609 1 3100.0 2.5e-06 0.018275508479171608 0.009183695203392178 0.0010499932704852934 0 0 0
3610 1 3100.0 4e-05 0.004102693589963251 0.016179375661299497 0.007678732562748874 0 0 0
3611 1 3100.0 7.091948395177269e-06 0.0002605989985562107 0.017367648313381567 0.006120107136716328 0 0 0
3612 1 3100.0 1.6123028719588568e-05 0.007932562587013841 0.015128915902739683 0.001360813304559262 0 0 0
3613 1 3100.0 1.743777736164188e-05 0.012945172667616295 0.012548948842645465 0.017292875693300725 0 0 0
3614 1 3100.0 6.366593538742536e-06 0.002375753123594815 0.005485910339450719 0.0030316949458401954 0 0 0
3615 1 3100.0 5.687947669532062e-06 0.012094478666120203 0.01983939211755474 0.002575968075809094 0 0 0
3616 1 3100.0 5.455959859688733e-06 0.0026799793260665877 0.010548349686984431 0.009779052248505182 0 0 0
3617 1 3100.0 2.0767323698352454e-05 0.014792714031608116 0.008381479600983833 0.014403102996188084 0 0 0
3618 1 3100.0 7.2066782721187014e-06 0.01725707248146185 0.002010726683721498 0.0005587681625436366 0 0 0
3619 1 3100.0 0.00020460324091048604 0.007544697683218263 0.0038434497696790285 0.013512814062896021 0 0 0
3620 1 3100.0 0.00010225694460438313 0.0014880379010041465 0.002996772820427121 0.0053867371825393464 0 0 0
3621 1 3100.0 0.00022596577067017493 0.0017299417776171966 0.011852448941051601 0.016299928612729435 0 0 0
3622 1 3100.0 2.060379669106268e-05 0.0196303841070207 0.010683300015748742 0.009678569895335819 0 0 0
3623 1 3100.0 1.4387564534676052e-05 0.01841664063698168 0.009816972588994013 0.01625215338051129 0 0 0
3624 1 3100.0 9.668267777962197e-05 0.0106699579211339 0.017833057166002406 0.008367121892969214 0 0 0
3625 1 3100.0 1.8612523008364723e-05 0.004523005009151356 0.004139453901632061 0.01196102373241863 0 0 0
3626 1 3100.0 2.4618837249490187e-05 0.014679874218561354 0.001290755326146914 0.01391614107700733 0 0 0
3627 1 3100.0 4e-05 0.010490723074074244 0.005404483111370647 0.01246640282389374 0 0 0
3628 1 3100.0 0.0001084272162430039 0.011246233164879365 0.008722339887573002 0.009578206261647312 0 0 0
3629 1 3100.0 8.616485210175475e-06 0.011145082661735549 0.018052872082998585 0.00942499941605711 0 0 0
3630 1 3100.0 0.00011025946664991693 0.016735460979130496 0.008767748946756544 0.006672140330354787 0 0 0
3631 1 3100.0 2.2314808055658017e-05 0.011826725658088788 0.018078984355819824 0.006257856251330482 0 0 0
3632 1 3100.0 7.37506611220312e-05 0.018899615916186125 0.012068986604111983 0.014483621757127443 0 0 0
3633 1 3100.0 2.0395753151015553e-05 0.018965358095982904 0.016297707411363885 0.006854551358725252 0 0 0
3634 1 3100.0 0.0001568454555226893 0.0031386789398826862 0.002623792688754253 0.009268165196278105 0 0 0
3635 1 3100.0 1.9967618209957524e-05 0.006069452636253571 0.012932596597507959 0.00923706269811639 0 0 0
3636 1 3100.0 1.0593762623136548e-05 0.017967343100782993 0.006842324020876145 0.010981534088749837 0 0 0
3637 1 3100.0 0.00012117810833821923 0.019360242341938932 0.005949056616916682 0.01883518596852627 0 0 0
3638 1 3100.0 0.00020133258269079725 0.008907229469267263 0.013469544572033384 0.014055917722586134 0 0 0
3639 1 3100.0 0.00016106665752024758 0.005509562127069566 0.01432531272380472 0.005561967129433283 0 0 0
3640 1 3100.0 7.044861975028745e-05 0.016156032235004128 0.007393721225891845 0.01131727804958868 0 0 0
3641 1 3100.0 0.000157580909484436 0.006643225215430645 0.009420373013247704 0.016077563233663095 0 0 0
3642 1 3100.0 3e-05 0.008221424765005366 0.017143571565601468 0.01537130774866306 0 0 0
3643 1 3100.0 5.476122964975666e-05 0.0003750126894823361 0.012851782602537587 0.01918521557965005 0 0 0
3644 1 3100.0 0.0001098644594780553 0.009748576567686027 0.010179750206452969 0.01060002237807372 0 0 0
3645 1 3100.0 0.00010950444482695792 0.008839383241337831 0.019082514661197987 0.003514281683777935 0 0 0
3646 1 3100.0 0.0001678677458090232 0.012210794009685466 0.01935398305079032 0.001733406215913373 0 0 0
3647 1 3100.0 5.598190245357193e-05 0.004737911204587822 0.008892010300963583 0.013096290353292094 0 0 0
3648 1 3100.0 7.48511282436691e-05 0.004186944307771169 0.007758988176165626 0.014272811229771986 0 0 0
3649 1 3100.0 1.6885969269462793e-05 0.005004280533667261 0.015628307545929577 0.008071902694668785 0 0 0
3650 1 3100.0 4.0785763728796564e-05 0.009395524710373089 0.006318436025313689 0.008897792793016055 0 0 0
3651 1 3100.0 0.00026063458797189745 0.00459001524830943 0.009347102432585509 0.009019737461938246 0 0 0
3652 1 3100.0 5.976694420072303e-05 0.016156671151304036 0.015222272081311897 0.013338053314285106 0 0 0
3653 1 3100.0 0.00012959063768854057 0.014001751975072368 0.0031954220429792884 0.009796565574897513 0 0 0
3654 1 3100.0 6.275538975555638e-05 0.009020855376788081 0.014292071455488527 0.017387007091551644 0 0 0
3655 1 3100.0 9.632765507585082e-05 0.013912693279628689 0.019366446940876046 0.018830401714772273 0 0 0
3656 1 3100.0 1.3413126264612076e-05 0.019161006707661823 0.017455385121577783 0.010493483046799831 0 0 0
3657 1 3100.0 0.00016888505167700292 0.0011301224943011756 0.00039906643201321427 0.0160405590010764 0 0 0
3658 1 3100.0 8.666260310460975e-06 0.011920169327201396 0.01744845601986369 0.014034240489131456 0 0 0
3659 1 3100.0 0.00011653582811538746 0.017204313673747522 0.013159000361634969 0.013279895136073971 0 0 0
3660 1 3100.0 0.00010981838381302399 0.00038975579545534416 0.0035972226941457636 0.005095730181084227 0 0 0
3661 1 3100.0 1.2028037843294183e-05 0.00937356071533027 0.012017129921844626 0.003985752914385606 0 0 0
3662 1 3100.0 0.00013736657028295434 0.011509032309598845 0.004361315221641195 0.01139842307214202 0 0 0
3663 1 3100.0 6.789578807103469e-05 0.0076245732372986425 0.0073863968671166675 0.010675860455594734 0 0 0
3664 1 3100.0 1.957695231119418e-05 0.01895461491579068 0.012638072183473058 0.005383991016914406 0 0 0
3665 1 3100.0 9.044306953038953e-05 0.010806529465719531 0.0033650704994980544 0.009603858848935934 0 0 0
3666 1 3100.0 7.060126087990314e-05 0.0022231486035183003 0.00457314149556516 0.009855807669746728 0 0 0
3667 1 3100.0 7.407029138145065e-05 0.01316939587066001 0.015351159648267302 0.007494628405774879 0 0 0
3668 1 3100.0 0.00011660837060407172 0.004073482455032883 0.009795988084614895 0.019439141641561495 0 0 0
3669 1 3100.0 0.00012555836948928314 0.014364174509819135 0.013068564213837628 0.009637653060698529 0 0 0
3670 1 3100.0 0.00010460849255803429 0.016515665524125984 0.014199606768042402 0.016823007710712202 0 0 0
3671 1 3100.0 0.00011114284490778486 0.015334854429174621 0.0004896811226466082 0.016178040692329646 0 0 0
3672 1 3100.0 3e-05 0.01633297846723322 0.0077131701539300815 0.011454718946925013 0 0 0
3673 1 3100.0 8.862347563776399e-05 0.006780014767850162 0.009588519962416326 0.010287386635406584 0 0 0
3674 1 3100.0 0.00011026531798448331 0.00047632164688739807 0.007504767151075634 0.011480216846627865 0 0 0
3675 1 3100.0 1.3029541072173555e-05 0.019253110309847866 0.017286607660994397 0.006165152130629689 0 0 0
3676 1 3100.0 0.00024916668289989694 0.0053680011356675855 0.0007340992581828692 0.005898879891166702 0 0 0
3677 1 3100.0 9.751966040506342e-06 0.01709382618360089 0.007044436720770642 0.013094836105264344 0 0 0
3678 1 3100.0 9.575118226130441e-05 0.01242441463119162 0.006912355994450213 0.00905133439196653 0 0 0
3679 1 3100.0 6.393272092688794e-05 0.012353509895582067 0.008179134104179213 0.001043170743149774 0 0 0
3680 1 3100.0 1.4711204467745195e-05 0.010398898980596509 0.01720564597077561 0.005060173751867329 0 0 0
3681 1 3100.0 7.025862920251095e-05 0.006038083337958098 0.003938737014512721 0.005273419279978198 0 0 0
3682 1 3100.0 1.0234307611747381e-05 0.014769359256220834 0.005289877748962053 0.005082136153549565 0 0 0
3683 1 3100.0 5.451591889891996e-06 0.009539379173506037 0.01176124233081537 0.014359803319431643 0 0 0
3684 1 3100.0 2.6666097861022856e-05 0.019057066812094795 0.015739596168133113 0.017888864259235082 0 0 0
3685 1 3100.0 8.283087540183439e-06 0.004092910623904105 0.0026453214324360695 0.013511867197741672 0 0 0
3686 1 3100.0 9.813488010405607e-05 0.011294051785369076 0.010010381590538353 0.017530681315820144 0 0 0
3687 1 3100.0 0.00013532758459600344 0.007145517694882525 0.016769229190682716 0.010946279507933419 0 0 0
3688 1 3100.0 8.166225804855127e-05 0.014899747095212959 0.010994246699883505 0.004402971650946088 0 0 0
3689 1 3100.0 0.00017404952734540908 0.005813226769290513 0.005891721414666805 0.004641889704163667 0 0 0
3690 1 3100.0 1.3966597204547013e-05 0.00972923670321063 0.009822574409428686 0.010052727052521795 0 0 0
3691 1 3100.0 7.22280751054638e-05 0.011649887923018284 0.007752696847410119 0.01014311133197578 0 0 0
3692 1 3100.0 7.937724850561508e-05 0.01587606556505709 0.00903713208056003 0.006385758043472648 0 0 0
3693 1 3100.0 1.3364547475252808e-05 0.005769973670991686 0.010940620113624172 0.019749904220757054 0 0 0
3694 1 3100.0 4.0062887293451654e-05 0.01689287915840896 0.010952661888952258 0.013703376803158434 0 0 0
3695 1 3100.0 1.8909924750025715e-05 0.010875257659067807 0.007605409192211407 0.007086350950750982 0 0 0
3696 1 3100.0 8.204222498292809e-06 0.01989869591716029 0.01900133077583938 0.011454783624975364 0 0 0
3697 1 3100.0 4.638310084967019e-05 0.007182707847310792 0.013022383306188793 0.009970813322838654 0 0 0
3698 1 3100.0 5.442136811769048e-05 0.0036650123440903452 0.014414254790643892 0.009703810894652696 0 0 0
3699 1 3100.0 0.00015753235228449806 0.00856239545391325 0.014114486188994153 0.0012311562533317247 0 0 0
3700 1 3100.0 1.008635400891135e-05 0.0044332675740436315 0.007109726261220866 0.00899054201462674 0 0 0
3701 1 3100.0 9.481353887547232e-05 0.004815379670901762 0.007696874634928034 0.00047836186748496224 0 0 0
3702 1 3100.0 1.1414079889817781e-05 0.019810875812773045 0.01413454245408938 0.01108190425159487 0 0 0
3703 1 3100.0 0.000105485618292325 0.00899289882505277 0.014961499464903511 0.012721355418244828 0 0 0
3704 1 3100.0 0.00010304644228745461 0.015677478119817158 0.0030242272504831602 0.010408520194825332 0 0 0
3705 1 3100.0 6.583592124572076e-05 0.017667716762599765 0.01631771630884989 0.006402391565156542 0 0 0
3706 1 3100.0 8.603380083233437e-06 0.007296014841814281 0.0011700646824250045 0.0054496688615551505 0 0 0
3707 1 3100.0 0.00015537753431942312 0.002352697637086671 0.014183818143077275 0.009911843872681356 0 0 0
3708 1 3100.0 1.78716567280482e-05 0.015796656346755467 0.009879837124698228 0.007248929440692062 0 0 0
3709 1 3100.0 5.549560699130973e-05 0.01563887867709379 0.013577726661400972 0.018687059015440714 0 0 0
3710 1 3100.0 9.19066669023752e-05 0.015603850681232476 0.01884816536756977 0.010178193545030056 0 0 0
3711 1 3100.0 0.00018442680755859366 0.016536650602528603 0.012145254558082729 0.009875928027688182 0 0 0
3712 1 3100.0 1.1761733128648033e-05 0.017860361721625716 0.013659411430339516 0.012051409754254679 0 0 0
3713 1 3100.0 1.649035060469669e-05 0.012624034753551469 0.013925480820238891 0.014398745319411321 0 0 0
3714 1 3100.0 1.4772436002864917e-05 0.001069892829668113 0.0012232272905527855 0.0032006018649782626 0 0 0
3715 1 3100.0 1.1775212949178708e-05 0.013828354111111269 0.018525486148664807 0.012900613964738766 0 0 0
3716 1 3100.0 5.319135204372199e-05 0.0009679167122023485 0.018785162863598125 0.002507274308365549 0 0 0
3717 1 3100.0 1.742581119489471e-05 0.018389166212858833 0.01860625393830581 0.013997341100180463 0 0 0
3718 1 3100.0 4e-05 0.015830948588025386 0.014810848754860736 0.0071076180660286595 0 0 0
3719 1 3100.0 0.00018994995430653123 0.012608376522779564 0.005496035703631891 0.005469388458276542 0 0 0
3720 1 3100.0 9.5212200165994e-06 0.01658667711673931 0.006218398470434049 0.004908833428506417 0 0 0
3721 1 3100.0 1.4499269245458156e-05 0.0076314152843849695 0.0007990488339488728 0.00274678153146258 0 0 0
3722 1 3100.0 0.00013157083483428855 0.015406183249557805 0.0010315767743762632 0.010028034006315075 0 0 0
3723 1 3100.0 9.914669290302635e-05 0.008005882363369817 0.016387542137006907 0.014004781196506711 0 0 0
3724 1 3100.0 7.662399994191013e-05 0.0017922687461724898 0.009405396518552437 0.01925098297744907 0 0 0
3725 1 3100.0 9.761133209290004e-06 0.0004377371761506093 0.005234810163770289 0.013868521422763746 0 0 0
3726 1 3100.0 2.1839181729628008e-05 0.01658364851412946 0.003962218170169748 0.012341045218788612 0 0 0
3727 1 3100.0 4.77172715962563e-05 0.013679728744023248 0.011359190985768987 0.012159866259747286 0 0 0
3728 2 7870.0 0.0003 0.008314076015237426 0.01186344017381315 0.008631846246630515 0 0 0
3729 1 3100.0 0.0001081397971255498 0.011325934946806547 0.009202558991132192 0.010123929578972348 0 0 0
3730 1 3100.0 6.615240453521532e-05 0.009341543633662928 0.017730423153706487 0.00032029238620720555 0 0 0
3731 1 3100.0 8.324772928013368e-05 0.004085846531604151 0.001192378537750803 0.01752598678272687 0 0 0
3732 1 3100.0 8.803751806102929e-06 0.016724621738988008 0.01663362653019922 0.0074450735994662 0 0 0
3733 1 3100.0 1.2067989284004472e-05 0.008262123286943415 0.01637019823649665 0.018841756747760584 0 0 0
3734 1 3100.0 8.195066307931524e-05 0.007779493684153934 0.01784179569758611 0.006188974371666222 0 0 0
3735 1 3100.0 1.7317331316755566e-05 0.004754846270312725 0.008871522820203327 0.011358530817091013 0 0 0
3736 1 3100.0 8.19780564981417e-05 0.008899260570983333 0.0023458759264517594 0.001274590065123554 0 0 0
3737 1 3100.0 0.0001417615373195681 0.015112965027937745 0.0036236402272364614 0.003206885405688238 0 0 0
3738 1 3100.0 2.888434587591533e-05 0.0019365524725232172 0.0141883647277389 0.01521788616526408 0 0 0
3739 1 3100.0 9.2444169902203e-06 0.013711346409542783 0.01720798289731512 0.01916639594826453 0 0 0
3740 1 3100.0 1.977554540360902e-05 0.0008853480513240803 0.01800669649290376 0.01388631516325294 0 0 0
3741 1 3100.0 1.780706363004577e-05 0.016590254946910108 0.010067172780575775 0.01428505721171097 0 0 0
3742 1 3100.0 1.673750247915013e-05 0.017959555241574627 0.01762702364709058 0.004620147169130964 0 0 0
3743 1 3100.0 1.1183851307638595e-05 0.0038830400050944365 0.015627852352100843 0.009115512359884169 0 0 0
3744 1 3100.0 1.4667036628650783e-05 0.003835027572928458 0.00484258753684718 0.01407793144025736 0 0 0
3745 1 3100.0 3e-05 0.007550052177637481 0.001154135765416727 0.009095698463962406 0 0 0
3746 1 3100.0 4e-05 0.01466074133688097 0.012713625333190372 0.014017729839162774 0 0 0
3747 1 3100.0 1.0424974560931362e-05 0.010172580931920801 0.004888885555317741 0.007967797460760609 0 0 0
3748 1 3100.0 9.812888436607864e-05 0.01613013194595364 0.014491629147267487 0.0008879877206410651 0 0 0
3749 1 3100.0 0.00011528571576406952 0.012858787196487722 0.0077200033217686365 0.019363448364660658 0 0 0
3750 1 3100.0 3e-05 0.005896761177072749 0.0024554947474099585 0.00022623191395405152 0 0 0
3751 1 3100.0 0.00010860476488779566 0.001366587169527035 0.007003502607305679 0.01519429861124678 0 0 0
3752 1 3100.0 9.274622094300987e-05 0.0012372634367577614 0.004224009771279704 0.018036735502212138 0 0 0
3753 1 3100.0 8.56795022815907e-05 0.012974389959771074 0.0031282676596832543 0.0029533035868355346 0 0 0
3754 1 3100.0 1.70764084631887e-05 0.008640746434027671 0.005821994651323857 0.014506862247376356 0 0 0
3755 1 3100.0 4.461663749682495e-05 0.01951518327587499 0.007239958350557893 0.006393493169797944 0 0 0
3756 1 3100.0 7.21691728725028e-05 0.0009971678554554371 0.01222481430782544 0.004660563148785737 0 0 0
3757 1 3100.0 6.450357784466037e-05 0.0041122580619249146 0.017311618879680263 0.011448069537829337 0 0 0
3758 1 3100.0 0.0001331449536433524 0.01544317959357261 0.018774446951193777 0.008350450194648846 0 0 0
3759 1 3100.0 2.814740626008951e-05 0.00424275230936656 0.0035253265855746344 0.006281461721024515 0 0 0
3760 1 3100.0 7.013633324063052e-05 0.00033037313905108756 0.0018371047653444664 0.0003871241534263763 0 0 0
3761 1 3100.0 0.00011150461967620469 0.005234463422233571 0.0047035444586927735 0.00760618572756785 0 0 0
3762 1 3100.0 8.053305975495758e-05 0.008555607569021125 0.013492461001059993 0.003980796797616937 0 0 0
3763 1 3100.0 0.000124120190472007 0.00020819133498440733 0.01490636329596437 0.017024911715369986 0 0 0
3764 1 3100.0 8.811360313084913e-05 0.005725337833319744 0.009708858059037912 0.004242085524065694 0 0 0
3765 1 3100.0 0.00010268450306941651 0.001289786125384438 0.010370566480885702 0.008943632775335305 0 0 0
3766 1 3100.0 5.3666498587026806e-05 0.019465058316551577 0.016820703625958888 0.008463745094433399 0 0 0
3767 1 3100.0 0.00014590408329648465 0.019435685574491324 0.017592097211805567 0.016336107020421944 0 0 0
3768 1 3100.0 9.801310635990873e-05 0.016564643026472155 0.011156531178328545 0.011744906410218366 0 0 0
3769 1 3100.0 7.194922144249884e-05 0.012501256823833545 0.005558841133627326 0.005020896322702295 0 0 0
3770 1 3100.0 5.4940846416338466e-05 0.007413337283836758 0.0037470608563892065 0.007887662748734732 0 0 0
3771 1 3100.0 1.0910153037739145e-05 0.009553412556948377 0.011315605012592643 0.001087662269668472 0 0 0
3772 1 3100.0 0.00010663395651643779 0.009297743067817416 0.004442569146620029 0.008598801920163868 0 0 0
3773 1 3100.0 5.847933047420455e-05 0.010041097497907249 0.016661885351839087 0.010564206579601648 0 0 0
3774 1 3100.0 4.639236382096669e-05 0.0018825636308890067 0.001684426593242057 0.015665285786128077 0 0 0
3775 1 3100.0 7.554122435122061e-06 0.004212574721963052 0.010375988701475297 0.008488933363027385 0 0 0
3776 1 3100.0 1.1217387788904225e-05 0.012621720126885873 0.005335966623092203 0.0018814925597960227 0 0 0
3777 1 3100.0 9.106116341340843e-06 0.01688694183471945 0.007049190276648029 0.015407051157149713 0 0 0
3778 1 3100.0 0.0001157011061945763 0.017338104734547808 0.01972385522988889 0.006133990193329215 0 0 0
3779 1 3100.0 0.00012571356166045874 0.014883815982663194 0.009605985322142368 0.018002201355598848 0 0 0
3780 1 3100.0 0.00016276744504190296 0.006647065292494893 0.009888373093431428 0.01858705690915804 0 0 0
3781 1 3100.0 1.5998248630671344e-05 0.004090500743751148 0.016216656425067432 0.00479807470506151 0 0 0
3782 1 3100.0 7.446952476343484e-06 0.011169805942188532 0.012313096158833298 0.005383065056751355 0 0 0
3783 1 3100.0 7.287632633898585e-05 0.007136624652692742 0.01075641252004425 0.012312192063189734 0 0 0
3784 1 3100.0 3e-05 0.01186277545257082 0.0021454526553626252 0.0015029547349051148 0 0 0
3785 1 3100.0 8.383789169582085e-06 0.015941434275689257 0.01769840503638272 0.01851741499930733 0 0 0
3786 1 3100.0 6.180650197849269e-05 0.013851569386761282 0.008914884320636092 0.004317221241582849 0 0 0
3787 1 3100.0 9.006374652009118e-05 0.018721640038703018 0.01663652656739262 0.0035965967686926 0 0 0
3788 1 3100.0 0.0001557869015897128 0.0023188515081364516 0.015346084430608477 0.007868404158421667 0 0 0
3789 1 3100.0 1.414504831235861e-05 0.0024351629852235783 0.010860992896174768 0.012932616105199385 0 0 0
3790 1 3100.0 0.00013637956164323298 0.003642660953648546 0.01624631604321411 0.0034954323132951486 0 0 0
3791 1 3100.0 1.6184005337480864e-05 0.013362425749007463 0.014383499004323919 0.009533190393008307 0 0 0
3792 1 3100.0 6.963162724125737e-05 0.007066472496548643 0.0011430926406862248 0.006970515419972891 0 0 0
3793 1 3100.0 4.242727815204509e-05 0.015342707096851722 0.00680746890407303 0.016247671929840415 0 0 0
3794 1 3100.0 4.457179294156832e-06 0.014231247581201643 0.00844613620186859 0.012190373182563677 0 0 0
3795 1 3100.0 6.477460128324329e-05 0.015929241669213008 0.003246753733418903 0.016107839892042668 0 0 0
3796 1 3100.0 1.3181151470300723e-05 0.006962679032736174 0.012124785947200475 0.011099941964593246 0 0 0
3797 1 3100.0 0.0001244392275087307 0.0034762549682255243 0.007575001808250505 0.003364077018312866 0 0 0
3798 1 3100.0 1.8757580956671747e-05 0.014677626372434397 0.003890679250623299 0.011742689316588496 0 0 0
3799 1 3100.0 6.225010613985737e-05 0.00866327055631868 0.013821443185187856 0.0057016369453329165 0 0 0
3800 1 3100.0 0.00011828757081762627 0.006163572102842681 0.0008727123385384479 0.004122193210578815 0 0 0
3801 1 3100.0 0.0001253576857300354 0.0019906409258414704 0.016355045015249283 0.001482243004283098 0 0 0
3802 1 3100.0 4.775031702232937e-06 0.01622058733026486 0.008076717303737628 0.012922666797478412 0 0 0
3803 1 3100.0 0.00011604739484344229 0.0186513780146711 0.009059280085412028 0.013917967215704947 0 0 0
3804 1 3100.0 8.626551817874352e-06 0.019428860258634554 0.014795520451540643 0.00785484772270679 0 0 0
3805 1 3100.0 2.8205473172536047e-05 0.004454616417631937 0.0027672464247878834 0.00022542560324805005 0 0 0
3806 1 3100.0 8.522262648306525e-05 0.019303117896202503 0.016071922960724436 0.002475314479863457 0 0 0
3807 1 3100.0 7.998294522402749e-05 0.010109350778560879 0.019361641663736957 0.006923371502406299 0 0 0
3808 1 3100.0 7.901679981910667e-05 0.01783692374702924 0.005483332134493299 0.01065724755433364 0 0 0
3809 1 3100.0 4.7682262356929804e-06 0.012905424495098452 0.0022523848602115817 0.01814527321957544 0 0 0
3810 1 3100.0 9.855561865433185e-05 0.00884820405226778 0.005696122838223755 0.01719986492062476 0 0 0
3811 1 3100.0 6.059050264552733e-05 0.014413293262168277 0.010691071272834805 0.010089794399524657 0 0 0
3812 1 3100.0 8.390358098928378e-06 0.013030238609155064 0.006780013874966116 0.014425808896793806 0 0 0
3813 1 3100.0 1.0877082159956607e-05 0.004937020597653295 0.005951112400502672 0.014385700629932156 0 0 0
3814 1 3100.0 0.0001897684071604747 0.003256846878655726 0.019582589893924283 0.01230177285520152 0 0 0
3815 1 3100.0 7.963335901801587e-06 0.003533227749461433 0.012791498777559493 0.012520568220575089 0 0 0
3816 1 3100.0 8.712913624016272e-06 0.0022266151511218324 0.003700232972109441 0.018337253332169273 0 0 0
3817 1 3100.0 2.5960579676483347e-05 0.018825234606215383 0.004642909573929321 0.007291648942518882 0 0 0
3818 1 3100.0 9.294019855311662e-05 0.014877975494422458 0.012983956710481002 0.001031404385926525 0 0 0
3819 1 3100.0 1.0241072118467152e-05 0.008453700617533883 0.004529125757087249 0.001475574255762383 0 0 0
3820 1 3100.0 0.00011347053813565913 0.00874031244879472 0.005189290617079863 0.0021790682677318937 0 0 0
3821 1 3100.0 2.2445463276003252e-05 0.013304432001444075 0.016718596746511258 0.002965929857161815 0 0 0
3822 1 3100.0 4e-05 0.012920783164471174 0.00391298147026208 0.011578241427641557 0 0 0
3823 1 3100.0 0.0002206504791787557 0.01682459991169113 0.0012104847527449655 0.014002149363680506 0 0 0
3824 1 3100.0 4.746588840959525e-06 0.004854264830179221 0.008827858005251219 0.005773248757963385 0 0 0
3825 1 3100.0 4.602677263517364e-05 0.006394140392220004 0.016252222785525575 0.011361140275495445 0 0 0
3826 1 3100.0 2.0687722118213943e-05 0.0018375562075868856 0.017192726398231634 0.016637369290774615 0 0 0
3827 1 3100.0 4e-05 0.0038930807079702663 0.008047728542602916 0.0026033320393228205 0 0 0
3828 1 3100.0 0.00018753518454184016 0.00533948410559256 0.011622008555551922 0.014230658721810946 0 0 0
3829 1 3100.0 0.00011339687237338026 0.01955645743520602 0.0036264914691854842 0.002009164554943716 0 0 0
3830 1 3100.0 7.2481859471157406e-06 0.012811948608622108 0.01847937898629085 0.013009380101820343 0 0 0
3831 1 3100.0 5.777174061172219e-05 0.0006784484381748151 0.0022112601458273854 0.000565112169440274 0 0 0
3832 1 3100.0 0.0001341929925263347 0.019533630829325393 0.019379750013495522 0.00492635260579035 0 0 0
3833 1 3100.0 0.00015355123011828858 0.009089881879078979 0.006872694661806069 0.008598483005572184 0 0 0
3834 1 3100.0 0.0001340614945598112 0.006783734800569659 0.0033347899618038773 0.01884980654064991 0 0 0
3835 1 3100.0 0.00010538536766418091 0.006252725844410203 0.009226048182220831 0.00832977673135733 0 0 0
3836 1 3100.0 1.8950895012036048e-05 0.00859718577967842 0.00922484526455513 0.0005637029632389736 0 0 0
3837 1 3100.0 0.00012887033349756683 0.014906067426675159 0.013428551560785467 0.015216214526401812 0 0 0
3838 1 3100.0 3e-05 0.0141420474315387 0.011152730530197826 0.014496213863738575 0 0 0
3839 1 3100.0 6.61664513069667e-06 0.011336118722562573 0.003355250190126973 0.01791599660383019 0 0 0
3840 1 3100.0 6.12003532841291e-05 0.007439951456439571 0.0075272305452650165 0.013070602529616475 0 0 0
3841 1 3100.0 7.397250897300456e-05 0.008300756877484841 0.01857208926077876 0.006338625266149076 0 0 0
3842 1 3100.0 7.4196857439296e-05 0.0007622659449789342 0.019059724267483685 0.010658063109855707 0 0 0
3843 1 3100.0 0.00014613151012756348 0.0028156835368659157 0.01176510780008225 0.004307532799567575 0 0 0
3844 1 3100.0 0.00010292675843641397 0.008587453266477175 0.016287199380148363 0.005433546693281997 0 0 0
3845 1 3100.0 0.00012985412974214825 0.009511298431047704 0.012458602256082545 0.012969798723890223 0 0 0
3846 1 3100.0 0.0001499913585830558 0.007191499973979963 0.0010911584419921233 0.0028496212581294498 0 0 0
3847 1 3100.0 6.552112102247118e-05 0.014868884658655948 0.003698846565835766 0.0056330569764743 0 0 0
3848 1 3100.0 5.6837986087954995e-05 0.008886456519067835 0.019721322525188503 0.007943459415239102 0 0 0
3849 1 3100.0 4.00773672252356e-05 0.013964416235848678 0.003671973925944662 0.0071679425000533425 0 0 0
3850 1 3100.0 3e-05 0.009832882340349298 0.0041133863904196264 0.018302869558952755 0 0 0
3851 1 3100.0 7.302228380252905e-05 0.00402418129009841 0.004918486857908875 0.011681655174598567 0 0 0
3852 1 3100.0 0.0001475876422910954 0.005623142768812038 0.008325120380381074 0.0055592714811896265 0 0 0
3853 1 3100.0 0.00014598817727633136 0.01623734280348244 0.005878296412888828 0.017635792711325315 0 0 0
3854 1 3100.0 5.395316503602177e-05 0.004699509479415002 0.01409611461120324 0.0024043141117299016 0 0 0
3855 1 3100.0 1.222380477431206e-05 0.008260708093324498 0.0041596113886663375 0.003741147280314412 0 0 0
3856 1 3100.0 9.015977599738543e-06 0.007412542173212119 0.016346397812188312 0.010875981472239159 0 0 0
3857 1 3100.0 2.496755340510918e-05 0.017006337068863276 0.01083236075663746 0.003907508591734789 0 0 0
3858 1 3100.0 4e-05 0.010884171546679368 0.016956402423507957 0.011994776079531958 0 0 0
3859 1 3100.0 5.880308274743662e-05 0.019717312262929405 0.01655686686559713 0.004492569370423629 0 0 0
3860 1 3100.0 9.81283142275449e-05 0.0020657494197175593 0.008185299012875954 0.00972931737121561 0 0 0
3861 1 3100.0 3e-05 0.002560444670873642 0.009439703909818476 0.016386155461269872 0 0 0
3862 1 3100.0 9.123825441827573e-06 0.00027712209812946477 0.019609490562332348 0.016477174751274182 0 0 0
3863 1 3100.0 0.00014100395186503238 0.015131109493224059 0.01927711477985023 0.012721784136503045 0 0 0
3864 1 3100.0 5.652858767236643e-06 0.01649648682821139 0.013824227861928171 0.008849818128203648 0 0 0
3865 1 3100.0 8.444350954562289e-05 0.004427128452241685 0.005848769351232888 0.010640678118332308 0 0 0
3866 1 3100.0 9.274855618691277e-05 0.008216325209353217 0.008753073689505796 0.002608446013989618 0 0 0
3867 1 3100.0 0.00010778966293810274 0.010702682066409128 0.018578204992443708 0.003498622275079344 0 0 0
3868 1 3100.0 0.00013901785455642366 0.014727627860608812 0.00884051080815746 0.015007789462320321 0 0 0
3869 1 3100.0 0.00018728260658460404 0.012505909385829708 0.002512949690930302 0.009769519621711357 0 0 0
3870 1 3100.0 4e-05 0.003555479205473866 0.016955024451161725 0.0036661424211013992 0 0 0
3871 1 3100.0 2.830214314408178e-05 0.008272573165263598 0.00021856104783036018 0.0069618097472765135 0 0 0
3872 1 3100.0 2.8109266474886175e-05 0.006200332982921282 0.012193739637301521 0.00667377490251109 0 0 0
3873 1 3100.0 1.564907350864143e-05 0.005826274084328094 0.004242165326121414 0.016255145441456648 0 0 0
3874 1 3100.0 7.563651017425711e-05 0.012076218121742152 0.012072652673994546 0.011463104987461798 0 0 0
3875 1 3100.0 0.00016299060255058913 0.01543020730917463 0.0016455634744753798 0.000771245416455509 0 0 0
3876 1 3100.0 2.5e-06 0.007023688123135467 0.012759737824608363 0.016084875372710507 0 0 0
3877 1 3100.0 0.00011139890081720648 0.011559404727389658 0.011384876750251858 0.014650598319509569 0 0 0
3878 1 3100.0 0.00012641927459259588 0.01952749627889459 0.019048932881476653 0.015638496374947228 0 0 0
3879 1 3100.0 3e-05 0.010200876936421072 0.011403586855596191 0.010754079612776088 0 0 0
3880 1 3100.0 5.6882721629703796e-05 0.009524370154576285 0.00039379125074006006 0.013614004038092426 0 0 0
3881 1 3100.0 0.00012460033488272641 0.0030272028204365547 0.010319083081945644 0.006447443679836966 0 0 0
3882 1 3100.0 4.794428916972054e-05 0.0058811663842139985 0.002877806023518246 0.0006082242161947141 0 0 0
3883 1 3100.0 9.206102127097311e-05 0.0019198517437163335 0.007968438627540823 0.0011886754975342375 0 0 0
3884 1 3100.0 0.00014527705116270187 0.009916948574748332 0.00263960215778956 0.00430351091746359 0 0 0
3885 1 3100.0 0.00010946256766248401 0.006433631458405988 0.0022149661267829484 0.006237425360465634 0 0 0
3886 1 3100.0 4e-05 0.011423495276686537 0.010519296668187043 0.00606500630676038 0 0 0
3887 1 3100.0 0.00010122925593033693 0.015806435418644117 0.014396207758768037 0.00859564456239749 0 0 0
3888 1 3100.0 3e-05 0.009942758636375813 0.0007301917925929898 0.019000869107619667 0 0 0
3889 1 3100.0 0.00014363652987810525 0.01809976077108219 0.006969613589747963 0.01948861850166092 0 0 0
3890 1 3100.0 1.7162562931599883e-05 0.00447770214984506 0.011452833841522538 0.0004014445693175318 0 0 0
3891 1 3100.0 0.00010002482232225997 0.0061741133272345036 0.017031399247477656 0.003141193016633111 0 0 0
3892 1 3100.0 1.3531641282871237e-05 0.017502724461387915 0.008490764770372344 0.0029328063459473225 0 0 0
3893 1 3100.0 5.972009302284703e-05 0.011993451817887612 0.0026394985214018216 0.0012416841367052615 0 0 0
3894 1 3100.0 5.144424062374162e-05 0.005930437511896013 0.00269069559977623 0.00953275194202848 0 0 0
3895 1 3100.0 4e-05 0.012475450210891484 0.004504083012144805 0.006215404024401685 0 0 0
3896 1 3100.0 0.0002815641142341592 0.0030307982294971395 0.011023006496928505 0.00796016823648526 0 0 0
3897 1 3100.0 9.434237698565925e-06 0.01611945917243994 0.01679388473049447 0.010335492736128596 0 0 0
3898 1 3100.0 1.0378840905157694e-05 0.009363773077806658 0.017589089653273483 0.0008365942136401468 0 0 0
3899 1 3100.0 0.0002667742743139575 0.004325521691686752 0.010941749097435312 0.0075524435984225795 0 0 0
3900 1 3100.0 9.13814857954957e-05 0.005444156909148266 0.01827965824531692 0.0054218879707429385 0 0 0
3901 1 3100.0 7.134939471629643e-06 0.0035788707357532136 0.01237313316714303 0.006378048575114625 0 0 0
3902 1 3100.0 4.741523833430482e-05 0.014531467118020088 0.009356833029222881 0.01822374956530306 0 0 0
3903 1 3100.0 5.301293446157669e-05 0.0010457563867711868 0.014994049213325401 0.014232677840601575 0 0 0
3904 1 3100.0 8.553297382072017e-05 0.006359017103528364 0.003972887937432388 0.019124734353872085 0 0 0
3905 1 3100.0 5.25715369675717e-06 0.0027233172544577126 0.0028225753095977397 0.01763900163697788 0 0 0
3906 1 3100.0 6.031036177979828e-05 0.0011811432399846879 0.00921935488553569 0.01586380690652351 0 0 0
3907 1 3100.0 0.00022975121689367483 0.0043932796537701005 0.014436689052856283 0.004292036471786169 0 0 0
3908 1 3100.0 0.00012025926912364331 0.006192624045066961 0.013450541762019489 0.011921325006706637 0 0 0
3909 1 3100.0 4.276624855399111e-05 0.009678355837278971 0.0048865724319597445 0.0005228336069403081 0 0 0
3910 1 3100.0 1.1174652982757499e-05 0.0005692324917663877 0.004068205793373533 0.012379888923074038 0 0 0
3911 1 3100.0 8.776902154348508e-06 0.01286339534264002 0.014053451998874766 0.013116356821199798 0 0 0
3912 1 3100.0 7.828941102851163e-06 0.015446264371187507 0.008693840908616652 0.002012300751396823 0 0 0
3913 1 3100.0 8.270362162668749e-05 0.006420460588078925 0.007191157845565941 0.01738299673701096 0 0 0
3914 1 3100.0 9.250939141559887e-05 0.00847165483883843 0.009328156988400636 0.018721230776849427 0 0 0
3915 1 3100.0 5.5058499112708025e-05 0.019223051776900504 0.0018630039151383935 0.010031097071507372 0 0 0
3916 1 3100.0 0.00011654038592954453 0.004244053014017873 0.01254540346516498 0.010879815100091663 0 0 0
3917 1 3100.0 9.145629137571381e-05 0.010197556537836877 0.005347341584477069 0.0008101383992735076 0 0 0
3918 1 3100.0 1.464750006479198e-05 0.003146425637710116 0.0055522374266515516 0.005716846301538461 0 0 0
3919 1 3100.0 1.272840283039871e-05 0.012041407363930931 0.018660773914109054 0.00789487469990208 0 0 0
3920 1 3100.0 1.8591475966837414e-05 0.004360692148977123 0.003267298720072011 0.01989673540596449 0 0 0
3921 1 3100.0 0.00011516741629031399 0.01322741203875879 0.010949336908683705 0.012031976071902786 0 0 0
3922 1 3100.0 2.0390422431552523e-05 0.01966229867116728 0.0034071315203065364 0.012771452588870798 0 0 0
3923 1 3100.0 6.0533537874765037e-05 0.009571105881723559 0.007994500141686008 0.0005213102559016508 0 0 0
3924 1 3100.0 4.7617865475377646e-05 0.01018448547176094 0.003172675389729097 0.01832584454169166 0 0 0
3925 1 3100.0 7.3930549123946245e-06 0.0009129618458272479 0.015179803971262106 0.0028420535151963233 0 0 0
3926 1 3100.0 4.783874616251592e-05 0.0009125387188420064 0.0023130493779675034 0.009685139177790916 0 0 0
3927 1 3100.0 4.145584548609015e-05 0.010139407630680348 0.01651706352374218 0.009112475159540131 0 0 0
3928 1 3100.0 6.415554122993634e-06 0.012950928507144724 0.010871755012987544 0.0024803836839084764 0 0 0
3929 1 3100.0 0.00012182690927539716 0.0001328733888434069 0.018928124376496113 0.013861734571364416 0 0 0
3930 1 3100.0 0.00014345790274702437 0.010531560187582138 0.015163853331392562 0.002539524819615345 0 0 0
3931 1 3100.0 1.0481304137867726e-05 0.017065927701825943 0.006200377370038455 0.008692556982327605 0 0 0
3932 1 3100.0 6.802677130420839e-06 0.014371583181507355 0.019792309099003487 0.006204267543978654 0 0 0
3933 1 3100.0 6.121878210409889e-05 0.017654087452852144 0.0067133961010029455 0.015163901070899875 0 0 0
3934 1 3100.0 0.00010705185169703835 0.017053401914627054 0.00015685236250084013 0.01401338594426076 0 0 0
3935 1 3100.0 5.313601618789559e-05 0.00823889206373041 0.01989116187410308 0.0011483971810804206 0 0 0
3936 1 3100.0 5.348225223839997e-05 0.009144013510217503 0.0001896876751465367 0.0177846523681105 0 0 0
3937 1 3100.0 3.967421400998531e-06 0.003948560807856175 0.015505312366410277 0.0060074392126063525 0 0 0
3938 1 3100.0 2.9874497884205874e-05 0.009501377412736578 0.019106751115411977 0.015615818862785175 0 0 0
3939 1 3100.0 4.838974794694589e-05 0.016680247748392923 0.009443475632421055 0.006598865486505724 0 0 0
3940 1 3100.0 7.735699673598483e-05 0.0002075191587697335 0.014182948230212239 0.014988326941222086 0 0 0
3941 1 3100.0 6.185619121509542e-05 0.010855530659029942 0.015390379197307385 0.006733319405522331 0 0 0
3942 1 3100.0 0.00013248347882969125 0.0022731994088530344 0.004513402124449986 0.015694333218441194 0 0 0
3943 1 3100.0 6.109139276652937e-06 0.0031137538045491664 0.007090910958507397 0.0016389004042280345 0 0 0
3944 1 3100.0 1.6049176925964126e-05 0.011464438565501575 0.011565453349592983 0.015658723891950846 0 0 0
3945 1 3100.0 6.217345395620857e-06 0.008326367699257042 0.013091491402313126 0.0027606413197459293 0 0 0
3946 1 3100.0 2.2962262396886765e-05 0.00969880086218238 0.015029887444803875 0.004201434133876926 0 0 0
3947 1 3100.0 2.255376181027216e-05 0.014578558474938053 0.012241321834738013 0.0042966945306045735 0 0 0
3948 1 3100.0 8.018480340557342e-06 0.007127268731265514 0.015202252840873976 0.004407502598396556 0 0 0
3949 1 3100.0 1.523567865391726e-05 0.0165217972421708 0.0037217694361519563 0.01919612441043592 0 0 0
3950 1 3100.0 1.0219798000929627e-05 0.018365643254172725 0.004504096110077861 0.002896628346329264 0 0 0
3951 1 3100.0 1.8266122406039614e-05 0.0028406309526040363 0.0005144099633052935 0.013142582083031484 0 0 0
3952 1 3100.0 0.00010624576574009314 0.007944490722745686 0.0114231018792616 0.016102654458431533 0 0 0
3953 1 3100.0 6.891306841942477e-06 0.0032703880876038937 0.014397352628559576 0.0191359409965742 0 0 0
3954 1 3100.0 6.170151082622173e-06 0.0013288862709512443 0.014235651785558611 0.0050894249907494 0 0 0
3955 1 3100.0 8.097925780666436e-06 0.01166252382229865 0.01607381145107112 0.014707455000071815 0 0 0
3956 1 3100.0 0.00012102816189142788 0.01511860958047136 0.018521980679143422 0.019650943122545693 0 0 0
3957 1 3100.0 5.932927082441806e-05 0.018495697218716592 0.01577603542065485 0.00016773713758002774 0 0 0
3958 1 3100.0 2.6989685805087993e-05 0.010876738434497475 0.01166845849721565 0.003974097168151957 0 0 0
3959 1 3100.0 0.00014787355518003747 0.01870059854163809 0.0032714843216048147 0.004849591645652386 0 0 0
3960 1 3100.0 5.158560068794038e-05 0.005164076830559621 0.0192131421769129 0.012853415382628498 0 0 0
3961 1 3100.0 0.00013118270131627633 0.009525098814917223 0.010068224257575966 0.01836808374143393 0 0 0
3962 1 3100.0 2.426954506968341e-05 0.0011306863578000924 0.008373173061821724 0.013849869431420891 0 0 0
3963 1 3100.0 6.289085633954084e-06 0.010253691158606177 0.013862460553575661 0.006861138832764072 0 0 0
3964 1 3100.0 5.856262857850168e-05 0.0158478457727361 0.008743702154372958 0.01008045871421283 0 0 0
3965 1 3100.0 0.00013444385425132697 0.005889640424965755 0.014495450238684118 0.003695650641632914 0 0 0
3966 1 3100.0 0.00010486696089833259 0.009557562092501384 0.01726991228620027 0.006775454678114835 0 0 0
3967 1 3100.0 0.00011761037795625098 0.01697375420598255 0.002630794970098268 0.0093757617571848 0 0 0
3968 1 3100.0 0.00012242518545207444 0.012101226386795928 0.00511311467624261 0.00821736741623708 0 0 0
3969 1 3100.0 0.00011385811664691456 0.01918601887221824 0.010201718237206468 0.001919203941041966 0 0 0
3970 1 3100.0 5.9758991510970196e-05 0.01862468609408918 0.008095931480146595 0.018544177149451817 0 0 0
3971 1 3100.0 0.00013648377156565063 0.01650525673701053 0.017015684617534253 0.019505292577442407 0 0 0
3972 1 3100.0 5.749282380076042e-05 0.0069553709127222075 0.0077007570667805 0.01961496888947064 0 0 0
3973 1 3100.0 4.8151591331154866e-05 0.01384885185846897 0.013231645003967963 0.0032519378567220465 0 0 0
3974 1 3100.0 1.5182157744735425e-05 0.019755140458388956 0.0002385059608232042 0.0029343815312836592 0 0 0
3975 1 3100.0 9.129423479522724e-05 0.015460430894688416 0.005745837396401071 0.0145489329997787 0 0 0
3976 1 3100.0 0.00019472611376734246 0.016330435507821813 0.0019727835705971933 0.015056464124042667 0 0 0
3977 1 3100.0 7.442358965313275e-05 0.010167233118839984 0.01919231431749353 0.0010061657215569514 0 0 0
3978 1 3100.0 9.391661928602612e-05 0.017335636296059803 0.01207312353622712 0.0031877192592873675 0 0 0
3979 1 3100.0 0.0001801479087025973 0.0008092966397713221 0.009104042674756521 0.01124858335007058 0 0 0
3980 1 3100.0 0.00015958347516828775 0.012540193530690873 0.0017526968202864262 0.013395614738318675 0 0 0
3981 1 3100.0 7.702333535288576e-05 0.011232543060773372 0.007280259894923236 0.01730938111073092 0 0 0
3982 1 3100.0 6.686087495178646e-05 0.01810976158293408 0.010609038183476752 0.01622217188941156 0 0 0
3983 1 3100.0 0.00011696808237637365 0.012907121814888504 0.019490974911222876 0.008347856086442392 0 0 0
3984 1 3100.0 6.738608177112894e-06 0.01916070240069294 0.013512081701557165 0.004148618582819072 0 0 0
3985 1 3100.0 5.52835162317684e-05 0.011874010063750272 0.013016860519054287 0.017660101830839468 0 0 0
3986 1 3100.0 9.7886172058969e-05 0.010748028742679105 0.004088212362805457 0.0028567603745091085 0 0 0
3987 1 3100.0 6.91935362432406e-06 0.00601556079719437 0.006134632545308198 0.011455844087962833 0 0 0
3988 1 3100.0 7.477933987609177e-05 0.0188954825420038 0.0033742423796324305 0.01262680119010859 0 0 0
3989 1 3100.0 6.105640372473538e-05 0.0021529410406781425 0.0035087979069983056 0.006031526491870221 0 0 0
3990 1 3100.0 4.415610556545302e-06 0.0069903850629929 0.01828087910635836 0.004057365020187612 0 0 0
3991 1 3100.0 7.481419283351304e-05 0.008051135974505772 0.003609183180346355 0.017062188580309355 0 0 0
3992 1 3100.0 8.029084755337907e-06 0.015142733559763618 0.003672693720642954 0.014066385689349618 0 0 0
3993 1 3100.0 7.878714671001015e-05 0.0018399166209253329 0.013111332336289805 0.016388210313732658 0 0 0
3994 1 3100.0 0.00016650126675420723 0.009015316165950653 0.01805912607388538 0.0033083022260545765 0 0 0
3995 1 3100.0 5.0577728401505704e-05 0.010439129184134054 0.011181484145947888 0.018522684805293014 0 0 0
3996 1 3100.0 7.37387633100803e-05 0.01593442278696053 0.006848241070353628 0.01935467929782167 0 0 0
3997 1 3100.0 1.5968409242423753e-05 0.015450634737994583 0.0006937514829893094 0.013770812073383919 0 0 0
3998 1 3100.0 0.00011272523030835888 0.00497392392850993 0.0172798362504571 0.006941735040987773 0 0 0
3999 1 3100.0 4.522869488641296e-05 0.009297125609656443 0.0028490184116410815 0.017271421167657428 0 0 0
4000 1 3100.0 0.00012541319598520696 0.007207523064706941 0.015170946419142833 0.01423879393113826 0 0 0
4001 1 3100.0 6.7707068574465185e-06 0.019217164104263613 0.012205882570745789 0.008912569934476358 0 0 0
4002 1 3100.0 0.00010415778708302538 0.015379738359057826 0.008474514984142437 0.015022905899765949 0 0 0
4003 1 3100.0 3e-05 0.017556253317941167 0.010282182827675068 0.005415776981799494 0 0 0
4004 1 3100.0 2.9217954202012656e-05 0.013712669733994473 0.007390876124681852 0.0056312844018511 0 0 0
4005 1 3100.0 6.886266517283858e-05 0.016209550156592385 0.004952024576799447 0.01228924066419969 0 0 0
4006 1 3100.0 7.347055295730073e-05 0.015231463662969605 0.01099986664436055 0.004744669358857407 0 0 0
4007 1 3100.0 8.804815360687187e-05 0.0014626140833631533 0.011394716858736683 0.014829650841038367 0 0 0
4008 1 3100.0 2.2740970426008532e-05 0.004742887541738193 0.003376947567326663 0.01758287082242048 0 0 0
4009 1 3100.0 2.5293961343565083e-05 0.01211825613253912 0.0008807252398563263 0.011981111471231463 0 0 0
4010 1 3100.0 7.522499352855173e-05 0.004349146548028388 0.01891744654437259 0.015327789745091875 0 0 0
4011 1 3100.0 6.518174283115532e-05 0.011833437828323867 0.01289236833328945 0.014306794333786595 0 0 0
4012 1 3100.0 2.3813507534707038e-05 0.002749817418629386 0.006357119223101966 0.004249467948915639 0 0 0
4013 1 3100.0 8.554130918179472e-05 0.01027489837335609 0.00772331133169808 0.006804386052890679 0 0 0
4014 1 3100.0 1.534244162175159e-05 0.018939640760407217 0.008294226242198955 0.0021046504699465695 0 0 0
4015 1 3100.0 1.2706019187301895e-05 0.015373407285160002 0.013308313415697973 0.017000106110903575 0 0 0
4016 1 3100.0 5.341713240638188e-05 0.008577011692332296 0.004213308447125572 0.004361037013196878 0 0 0
4017 1 3100.0 0.00011328161282072181 0.003423842913827924 0.01656164095714351 0.010201573306338505 0 0 0
4018 1 3100.0 2.1551785493113944e-05 0.009056363900014752 0.01902190036213206 0.012137274018543346 0 0 0
4019 1 3100.0 0.00011423163312133987 0.018989557306852825 0.006717433369456811 0.0010721777097558978 0 0 0
4020 1 3100.0 5.118948173312613e-06 0.006352039621770069 0.010106106840657839 0.006177783433956719 0 0 0
4021 1 3100.0 9.286947955687373e-05 0.008153226175839655 0.009406654917953136 0.00494066698344536 0 0 0
4022 1 3100.0 6.899289135716463e-05 0.018151742054982867 0.01267386663413331 0.00668194092717714 0 0 0
4023 1 3100.0 0.00013272276318839464 0.007094029207008884 0.01087438482070229 0.008474560854735006 0 0 0
4024 1 3100.0 3.58177016204498e-06 0.017677559704321652 0.017804056582013193 0.012566578393710255 0 0 0
4025 1 3100.0 0.00014431834696495305 0.007265393171394209 0.006981095781515211 0.013318215966298877 0 0 0
4026 1 3100.0 0.0002859977978074263 0.009363445273138527 0.014275013156622758 0.004402378379163369 0 0 0
4027 1 3100.0 6.823327605064108e-05 0.001551962904731167 0.0013782281381372508 0.01732435698690488 0 0 0
4028 1 3100.0 1.0954582279911979e-05 0.0044350900027498655 0.019165005934190262 0.0017682823666061048 0 0 0
4029 1 3100.0 1.0752818435670401e-05 0.01203713567456402 0.01853883521497112 0.01118884910059576 0 0 0
4030 1 3100.0 3e-05 0.013816568140729606 0.006316515201258389 0.006823284623174448 0 0 0
4031 1 3100.0 1.0625346193172888e-05 0.0008413304784280695 0.0035956380259979247 0.017553646213689433 0 0 0
4032 1 3100.0 8.489372273141724e-05 0.017401679355753708 0.013236428114478836 0.008788800176063302 0 0 0
4033 1 3100.0 0.00012510281553328246 0.01568887710172119 0.007594651742476526 0.016537654912562448 0 0 0
4034 1 3100.0 9.816459784731965e-05 0.002627307268775873 0.01004144587166829 0.009030779967138415 0 0 0
4035 1 3100.0 0.00010043352569522248 0.003720571758479396 0.01489710073440954 0.005517383151837469 0 0 0
4036 1 3100.0 1.0447888996907112e-05 0.006264217001100831 0.016555418642400933 0.019652557198886977 0 0 0
4037 1 3100.0 0.0001538275579192073 0.008420687809782295 0.016180605595137912 0.0033168151381585864 0 0 0
4038 1 3100.0 0.0001603556446007893 0.01774272407517025 0.000958325523741429 0.014392594457500135 0 0 0
4039 1 3100.0 9.538503783533336e-05 0.00932170695752586 0.016779718282771007 0.018516784326152412 0 0 0
4040 1 3100.0 2.5650798135727248e-05 0.015089411254334148 0.009440990255224017 0.005979249283942349 0 0 0
4041 1 3100.0 6.903345497519004e-05 0.01481440392121792 0.01074362852883057 0.008190642035840395 0 0 0
4042 1 3100.0 6.248690829361458e-05 0.010733048256499204 0.015963970703540234 0.011440813672483922 0 0 0
4043 1 3100.0 4.108724529311853e-05 0.009310836232413928 0.0033145368279048565 0.004280650524178018 0 0 0
4044 1 3100.0 0.00014048056895994107 0.009661963854650275 0.009572901865797094 0.019491478121281748 0 0 0
4045 1 3100.0 0.00016346510409412263 0.018475396802645858 0.006122114781662465 0.011645027012188421 0 0 0
4046 1 3100.0 3e-05 0.003275389308677071 0.01717190453072158 0.00184560455032053 0 0 0
4047 1 3100.0 1.7889482740660635e-05 0.006808783620084158 0.01044524419759556 0.015676810622042358 0 0 0
4048 1 3100.0 7.774769514344017e-06 0.01640832771484788 0.002776283997238131 0.0011119110479100428 0 0 0
4049 1 3100.0 4.798732442291e-05 0.013019182598464076 0.009261054179507481 0.007716421988345569 0 0 0
4050 1 3100.0 0.0001772457538256486 0.009255379110179532 0.014821857789223266 0.006882530802934802 0 0 0
4051 1 3100.0 0.00016549629040039525 0.01891455389940211 0.005686583606407158 0.0026313127555137577 0 0 0
4052 1 3100.0 6.815809370786186e-05 0.01917639825054917 0.01393678459867571 0.015041953478258083 0 0 0
4053 1 3100.0 0.00010470373326983803 0.0017878088061031954 0.004247787099726707 0.011061916911703598 0 0 0
4054 1 3100.0 0.00013536674758265536 0.0051875631364186 0.014202869893455572 0.002894850728529494 0 0 0
4055 1 3100.0 0.00013633373492054378 0.007059335762550806 0.0009802331866609684 0.01804812999208465 0 0 0
4056 1 3100.0 1.4064084454436613e-05 0.006511059041291188 0.008494729460321404 0.008528445966803404 0 0 0
4057 1 3100.0 8.650392329611531e-05 0.012455790787607163 0.017789639992477017 0.009186209659959513 0 0 0
4058 1 3100.0 9.397427203291642e-06 0.01674632622381133 0.0018141221199312475 0.009404346301924537 0 0 0
4059 1 3100.0 9.458522337119288e-05 0.013507869928154264 0.012650155198429752 0.0011383175424968565 0 0 0
4060 1 3100.0 5.230146906707045e-05 0.013581087999704032 0.017242762583961554 0.0029558174391144257 0 0 0
4061 1 3100.0 1.3946652405253596e-05 0.0011200816789670813 0.013356531232620088 0.004003028482269763 0 0 0
4062 1 3100.0 9.030986919292943e-05 0.01742594302366368 0.01843309229804632 0.00020232466995167488 0 0 0
4063 1 3100.0 8.149107945692819e-05 0.01713232812637902 0.017268401510960592 0.012124329492394333 0 0 0
4064 1 3100.0 8.315197217186378e-05 0.010176189755976093 0.0003225785615272806 0.006593638664551075 0 0 0
4065 1 3100.0 9.14471961870891e-06 0.01238301390027683 0.017923137698626766 0.01808910301929887 0 0 0
4066 1 3100.0 1.0531954940079096e-05 0.004615745383023517 0.007840782392142817 0.008826990339266597 0 0 0
4067 1 3100.0 5.063380276018867e-05 0.0001409093597247085 0.004826058068991075 0.00195466608975148 0 0 0
4068 1 3100.0 0.00011880819588173743 0.013653389082852217 0.0034565655253540983 0.008917247830244428 0 0 0
4069 1 3100.0 5.080845697084838e-05 0.001018941560988432 0.01587030076840538 0.017531624962590055 0 0 0
4070 1 3100.0 0.00012685554787769692 0.0023602664370502213 0.0041894750535610955 0.004645411207174667 0 0 0
4071 1 3100.0 8.862408883602111e-06 0.0014903335310106167 0.017767979667925864 0.015950322981694843 0 0 0
4072 1 3100.0 4.1537278594160855e-05 0.007976041295831472 0.006416494019133811 0.01309558955745727 0 0 0
4073 1 3100.0 5.906082472443297e-05 0.014532718556560428 0.012617489580283619 0.0029365770673607343 0 0 0
4074 1 3100.0 5.016419655951084e-05 0.008942589921660485 0.0011725382028789878 0.016235773490767682 0 0 0
4075 1 3100.0 8.112509298134563e-05 0.007770550707237315 0.010499657865712582 0.015871253796376675 0 0 0
4076 1 3100.0 4e-05 0.006075280937667189 0.0033673988967351655 0.004881766402542785 0 0 0
4077 1 3100.0 3e-05 0.013658711134301145 0.005880430103339245 0.018680712064137333 0 0 0
4078 1 3100.0 4e-05 0.0011745096389149297 0.007239596614693238 0.005341126219019602 0 0 0
4079 1 3100.0 1.2237575842422563e-05 0.01711832551765564 0.018612758437818722 0.011468898622040329 0 0 0
4080 1 3100.0 1.753888943407877e-05 0.006151587492695183 0.00393948417252276 0.005804283863980833 0 0 0
4081 1 3100.0 8.62896880180519e-05 0.0041393405197887164 0.011012714052362454 0.0014882575473957197 0 0 0
4082 1 3100.0 0.00010922729274575539 0.0035867595305770677 0.0024202671156070086 0.000630828771894439 0 0 0
4083 1 3100.0 0.0001334844578880561 0.006721428085142008 0.019619789836307026 0.007625732574801022 0 0 0
4084 1 3100.0 0.00010128970350422186 0.01352442055324239 0.01556658892908069 0.012865132162802613 0 0 0
4085 1 3100.0 1.918112805459946e-05 0.007442443434852398 0.013959295891813188 0.0029256480767455993 0 0 0
4086 1 3100.0 6.263902771223174e-05 0.006481518607610305 0.010981364376828024 0.014060665992266123 0 0 0
4087 1 3100.0 3.199737659334291e-06 0.0023125798880272975 0.013485375267301964 0.015066240229150344 0 0 0
4088 1 3100.0 0.00013938410876447374 0.012786798282356958 0.0009429596375342714 0.018984502258442438 0 0 0
4089 1 3100.0 9.920382579478031e-05 0.013832234768039466 0.01703078786324667 0.019185380531547447 0 0 0
4090 1 3100.0 0.00010057068790554699 0.013663514289828442 0.0032296643524797417 0.008411840871380475 0 0 0
4091 1 3100.0 3e-05 0.01933440434372451 0.00972075229130102 0.011773418475144097 0 0 0
4092 1 3100.0 4.9077429818335286e-05 0.0033413326706391686 0.018903089211188783 0.0067726975626116554 0 0 0
4093 1 3100.0 7.083730149837264e-06 0.007956279750674776 0.01500905099782406 0.017522009907291077 0 0 0
4094 1 3100.0 8.937895976804275e-05 0.0023194795344557745 0.01048749756476085 0.006584863143520976 0 0 0
4095 1 3100.0 8.109517579936951e-05 0.00802758933877644 0.016850232646115744 0.008291607219742052 0 0 0
4096 1 3100.0 7.981815321425671e-05 0.007030237038057082 0.009610581809263464 0.0011120038997798388 0 0 0
4097 1 3100.0 0.00010482530673838107 0.002942917015605519 0.017212251287117133 0.0025812419575268657 0 0 0
4098 1 3100.0 6.9872604249584385e-06 0.005032698384814368 0.010495028752641262 0.0033901617842618924 0 0 0
4099 1 3100.0 2.6575647796892865e-05 0.012304165707356917 0.012357012031783389 0.016564164277882095 0 0 0
4100 1 3100.0 8.437994500528284e-06 0.015510237815070797 0.0012755545380665968 0.011031541123017652 0 0 0
4101 1 3100.0 1.2050705621819263e-05 0.015072047030780977 0.005881807939119665 0.012774219682743112 0 0 0
4102 1 3100.0 0.0001273810236186922 0.0008408845700167151 0.00220964522231379 0.012181779993239094 0 0 0
4103 1 3100.0 0.00015717103324656132 0.012672628779652181 0.00425674209021769 0.010960043995121556 0 0 0
4104 1 3100.0 8.222115034228495e-05 0.013372288581140047 0.008326326299433424 0.012358300585120172 0 0 0
4105 1 3100.0 1.1161279753731252e-05 0.00953166073022344 0.0037975661452081585 0.009490396319237872 0 0 0
4106 1 3100.0 8.213262102184431e-06 0.008540151754124262 0.0037109179706337403 0.01734174076793603 0 0 0
4107 1 3100.0 4.466629665339672e-05 0.0007009068158477542 0.006715899653948301 0.008273118830502664 0 0 0
4108 1 3100.0 0.0001318771235851668 0.012662057609055963 0.0014832843835662197 0.01917077581009568 0 0 0
4109 1 3100.0 1.1172615073830427e-05 0.009148174616497223 0.0008040301813724033 0.0019372903981515694 0 0 0
4110 1 3100.0 5.518765340657905e-05 0.005822744847836428 0.01872535936380965 0.007582183352324859 0 0 0
4111 1 3100.0 5.112200197057399e-05 0.017959750332556916 0.0076626659291144355 0.01535438875782418 0 0 0
4112 1 3100.0 8.487749499956306e-05 0.004787351496819785 0.011433268021035429 0.01835824815731234 0 0 0
4113 1 3100.0 9.739733988555422e-05 0.005684460337353058 0.012685795055723682 0.0038213270683283124 0 0 0
4114 1 3100.0 5.9806136601867204e-05 0.0021431622384574978 0.016475081673509064 0.01536921226657329 0 0 0
4115 1 3100.0 2.6780100351571705e-05 0.01657224888819458 0.004151968937954044 0.004001685226364593 0 0 0
4116 1 3100.0 0.00011745443272466973 0.014907187760723015 0.006401879038081065 0.01450432291334184 0 0 0
4117 1 3100.0 7.523717306840776e-05 0.005875795773371577 0.014891723170615377 0.01648766069005457 0 0 0
4118 1 3100.0 4e-05 0.003188194823014022 0.000349008020934284 0.002916691754155796 0 0 0
4119 1 3100.0 9.690152232562206e-05 0.012312721317606337 0.004103400914809462 0.013425708501865493 0 0 0
4120 1 3100.0 9.597787767693322e-06 0.004961514395074175 0.009654487902578881 0.018099146257057212 0 0 0
4121 1 3100.0 8.791639155742028e-05 0.010956749331790971 0.0036942392842626436 0.01415152378885928 0 0 0
4122 1 3100.0 4.91466218667112e-05 0.006339792430907703 0.017813074979504545 0.009851434250286712 0 0 0
4123 1 3100.0 6.890123869238482e-05 0.004454791855804652 0.004676565034529874 0.0019930144279483677 0 0 0
4124 1 3100.0 0.00012553705171095998 0.003196192073551951 0.01463429139742922 0.01803026663667587 0 0 0
4125 1 3100.0 7.762175460125404e-05 0.019434411346657268 0.01606832438860307 0.013071215714007586 0 0 0
4126 1 3100.0 5.705490911156834e-05 0.006908813534905862 0.006458505122349894 0.004661568448784398 0 0 0
4127 1 3100.0 5.5655046108141876e-05 0.002527226256712005 0.005426444540777054 0.0038405223378545897 0 0 0
4128 1 3100.0 4e-05 0.012571181210542808 0.011169088677481192 0.0010111518687231638 0 0 0
4129 1 3100.0 8.029387702394263e-06 0.008773709141372564 0.0073099247401916655 0.016844318115236342 0 0 0
4130 1 3100.0 0.00015870742601671828 0.012428577856015394 0.009684363956459708 0.0033353993104781672 0 0 0
4131 1 3100.0 1.7146692459079492e-05 0.012713820520057996 0.010252061673756842 0.0023743607683069817 0 0 0
4132 1 3100.0 9.215422554064498e-05 0.014630462521339175 0.013586529350996688 0.00012989481859443486 0 0 0
4133 1 3100.0 7.918410639843441e-05 0.019420831602858464 0.010045889938071251 0.011571495471112815 0 0 0
4134 1 3100.0 8.944389976302917e-05 0.0028219992806536925 0.0027186089355746208 0.01247302803638246 0 0 0
4135 1 3100.0 1.0788213623025857e-05 0.005799224304176149 0.008516376295773618 0.002677182506012277 0 0 0
4136 1 3100.0 4e-05 0.018179463470231833 0.011018701886523265 0.004222681844370459 0 0 0
4137 1 3100.0 0.00019553065140666593 0.004459401961056559 0.015705666684366397 0.008362471140482592 0 0 0
4138 1 3100.0 7.27314367839237e-05 0.018263943613440116 0.0014833447267032535 0.01949473652332486 0 0 0
4139 1 3100.0 0.00014979744834394765 0.014475674724790421 0.008906207015814563 0.008655734312745536 0 0 0
4140 1 3100.0 6.306578870534717e-05 0.004807689952644021 0.008436870507312491 0.010870359961067898 0 0 0
4141 1 3100.0 0.00013006524976214863 0.019074369588724643 0.003332918976844179 0.015052970221078347 0 0 0
4142 1 3100.0 2.5761323923917172e-05 0.006305962900272717 0.017393924904487705 0.018260588166638544 0 0 0
4143 1 3100.0 5.6399044501720986e-05 0.012335934693739293 0.018231143795505785 0.018166199240038428 0 0 0
4144 1 3100.0 0.00017831623917035188 0.001332448193877505 0.0011585269835143208 0.015067685074466333 0 0 0
4145 1 3100.0 7.689587067815939e-06 0.011120578747996265 0.01237112756709709 0.00196747952298064 0 0 0
4146 1 3100.0 9.982238247131962e-05 0.00265642279310582 0.0005452335868758881 0.019669815897358226 0 0 0
4147 1 3100.0 0.00014683016100546767 0.018458149367754705 0.016780272113145245 0.007139852272247853 0 0 0
4148 1 3100.0 0.00012185000294532268 0.0058538058104017675 0.012985049808299596 0.014367609534751384 0 0 0
4149 1 3100.0 7.895888511809446e-05 0.010587009507061877 0.016924331029743552 0.019170371559970385 0 0 0
4150 1 3100.0 4.937258354667659e-06 0.009473213334968204 0.0029549323105370483 0.006903828239861478 0 0 0
4151 1 3100.0 4e-05 0.001886592763210496 0.01293924307720169 0.005189123531695464 0 0 0
4152 1 3100.0 0.00012533656963396284 0.01492094433496432 0.008227816756642296 0.018176230635720585 0 0 0
4153 1 3100.0 0.0001235248118667464 0.019392624206963003 0.017732481146247165 0.010135744896597151 0 0 0
4154 1 3100.0 9.590057907011018e-05 0.000127333142429446 0.005872505326172125 0.006278405971414255 0 0 0
4155 1 3100.0 2.4674643191803056e-05 0.003296190417967954 0.002076701728552923 0.0081769209239383 0 0 0
4156 1 3100.0 5.8789976035720564e-05 0.012858473966471957 0.0169236179628733 0.010417484468268668 0 0 0
4157 1 3100.0 4e-05 0.0008135316687448772 0.011698187382426275 0.006636084538613671 0 0 0
4158 1 3100.0 1.3594630517830386e-05 0.01405807306439255 0.006419780086566935 0.006931676444979182 0 0 0
4159 1 3100.0 9.628115487463582e-05 0.013012086396625077 0.008327114801882321 0.018997518784733967 0 0 0
4160 1 3100.0 3e-05 0.0158818311555034 0.012484349318873395 0.00298248609111366 0 0 0
4161 1 3100.0 9.621082117292885e-05 0.010909569918969731 0.017031595161322875 0.003131159655031073 0 0 0
4162 1 3100.0 9.6416532072431e-05 0.011584785577875076 0.007375196399950537 0.010082919201683553 0 0 0
4163 1 3100.0 0.00016149011901798736 0.00046338705376007116 0.013594635810232231 0.008621319916404706 0 0 0
4164 1 3100.0 9.99229900519987e-05 0.016860763087898755 0.006690125659342016 0.005298801275300628 0 0 0
4165 1 3100.0 4.159731905644524e-05 0.013391845359528661 0.002132941698203798 0.004338220969009932 0 0 0
4166 1 3100.0 7.032488661420473e-06 0.014699405705609035 0.009274355649201612 0.012608562675745583 0 0 0
4167 1 3100.0 1.3983480269262514e-05 0.01819289205549094 0.00891687424777908 0.004155495891632216 0 0 0
4168 1 3100.0 0.00015954591434970465 0.0039060767878768454 0.009217544129512787 0.005568979093202141 0 0 0
4169 1 3100.0 4e-05 0.012133341102725391 0.0014759804509023912 0.009906861611292955 0 0 0
4170 1 3100.0 5.969358110589322e-05 0.011696042569163208 0.013877298961370039 0.017694184204930567 0 0 0
4171 1 3100.0 1.679454954356421e-05 0.014593571340697798 0.009982376284237678 0.006534469163366499 0 0 0
4172 1 3100.0 5.105347526911622e-05 0.01794419878845342 0.005999369010761584 0.010517575585801523 0 0 0
4173 1 3100.0 7.133246099611083e-05 0.013532892556548432 0.007049429690040727 0.01955202769480475 0 0 0
4174 1 3100.0 0.00018589174235892944 0.014930880957433066 0.00736977099280424 0.007338716622623262 0 0 0
4175 1 3100.0 0.00011906171420404365 0.005182117333876305 0.007574261150482464 0.014025748387696785 0 0 0
4176 1 3100.0 0.00011736236620444413 0.01153989703871715 0.00033611205227077566 0.009299720877711078 0 0 0
4177 1 3100.0 0.00011569948635468477 0.012048909361679176 0.019851891887355536 0.013602940888846976 0 0 0
4178 1 3100.0 6.190544336529088e-05 0.000755933792415724 0.010699164057039691 0.011970941521351218 0 0 0
4179 1 3100.0 2.9291843777996463e-05 0.019181369716596803 0.0019143530586057265 0.007195149799356919 0 0 0
4180 1 3100.0 6.947238110426712e-05 0.006577407914505698 0.0026597982957615634 0.0059114437009765404 0 0 0
4181 1 3100.0 8.06445712785147e-06 0.010848560005725474 6.387256621820283e-05 0.004407771212146997 0 0 0
4182 1 3100.0 3e-05 0.0041229381045481146 0.00011762818754195009 0.012794405370471825 0 0 0
4183 1 3100.0 8.400105072457265e-05 0.004637934859785896 0.012612893095174863 0.017161267285918942 0 0 0
4184 1 3100.0 0.00014583871352611094 0.013778829122752233 0.009863031653852286 0.009078822105365677 0 0 0
4185 1 3100.0 8.590271671985795e-06 0.006677473870387882 0.0068126212834473295 0.010261374187945529 0 0 0
4186 1 3100.0 1.7020814222237254e-05 0.000971552111237903 0.015080677093258232 0.006752997563380848 0 0 0
4187 1 3100.0 0.0001415983807811021 0.014441436122791487 0.00031811339393858533 0.006083432677086052 0 0 0
4188 1 3100.0 1.8331938618842373e-05 0.004811905807838765 0.013799553579195992 0.00970686992412077 0 0 0
4189 1 3100.0 5.1160860031233355e-05 0.017915247154844997 0.0027122938185324815 0.016162802075374388 0 0 0
4190 1 3100.0 4e-05 0.0012877367752924269 0.01470018857014099 0.019110460687006735 0 0 0
4191 1 3100.0 6.709178436984471e-05 0.011536976723398382 0.009245021723186865 0.00010643735423957831 0 0 0
4192 1 3100.0 3e-05 0.0198619257250715 0.0132546235224208 0.015604487062920195 0 0 0
4193 1 3100.0 0.00013593580376376695 0.008248478310669145 0.012417351078656613 0.012406663447035447 0 0 0
4194 1 3100.0 6.7742610637564466e-06 0.007086563399306216 0.019513903539151417 0.011872071156511114 0 0 0
4195 1 3100.0 4e-05 0.0114262375627034 0.010860312625397214 0.0030199611887530473 0 0 0
4196 1 3100.0 0.00017090394230312363 0.00869576422655871 0.019172406775125557 0.01295332014954183 0 0 0
4197 1 3100.0 7.989016886870669e-05 0.0029103764733104352 0.008058983712122242 0.010663002135952938 0 0 0
4198 1 3100.0 2.742340560358622e-05 0.009396672855345869 0.0018669878815062123 0.011175526674940074 0 0 0
4199 1 3100.0 0.0001233595929412277 0.0029283133837036523 0.0030313167519739146 0.00571295111473522 0 0 0
4200 1 3100.0 0.00022537106749109304 0.017231179059250586 0.008461491772635976 0.013596611999316536 0 0 0
4201 1 3100.0 8.585002165523967e-06 0.0012965604563500537 0.014923411335706124 0.010654766628301475 0 0 0
4202 1 3100.0 0.000169591033396323 0.007550152769549952 0.0030431605124311544 0.012898985401240865 0 0 0
4203 1 3100.0 0.000155393757310465 0.003993963091664859 0.01307140512045253 0.010749455914532547 0 0 0
4204 1 3100.0 0.0002236328226464138 0.014307536989036447 0.015786616660685596 0.004148568034684645 0 0 0
4205 1 3100.0 0.00010988276753064255 0.013518959483126708 0.0032490060382572156 0.003996247618178202 0 0 0
4206 1 3100.0 5.138948729715231e-05 0.0003685691406524219 0.0015291113472340877 0.0016212898372412526 0 0 0
4207 1 3100.0 3e-05 0.006735458619651275 0.013237689681636931 0.0029700510523520173 0 0 0
4208 1 3100.0 6.55396191704874e-05 0.016401111616516834 0.002506255094484642 0.0015236342498706472 0 0 0
4209 1 3100.0 5.487958592011006e-05 0.0071543431096810035 0.000131024752615398 0.006211687917575639 0 0 0
4210 1 3100.0 7.806770169729503e-05 0.0015263235669466487 0.011195902985170052 0.006816585149917511 0 0 0
4211 1 3100.0 0.00020258327074864518 0.001964096405777293 0.015929726709507028 0.007255885397052524 0 0 0
4212 1 3100.0 1.4287421053715693e-05 0.01907033425646145 0.0018335330515489505 0.010612163996531745 0 0 0
4213 1 3100.0 1.3616188604023603e-05 0.01925444040248136 0.0012644105332670435 0.012782895161822093 0 0 0
4214 1 3100.0 7.210102401940583e-06 0.0030251458525141204 0.019547106466430784 0.019590416423636643 0 0 0
4215 1 3100.0 0.00012637669526545544 0.01329824508842844 0.014682812989935526 0.012730836174864212 0 0 0
4216 1 3100.0 7.769094393598479e-06 0.0024385700666406766 0.00436089212305175 0.0026634956750212118 0 0 0
4217 1 3100.0 8.704877747961432e-05 0.005327865432058008 0.005259905256440868 0.0066447991407289535 0 0 0
4218 1 3100.0 7.377383656186492e-05 0.012605812913434713 0.0007793037556026055 0.01934532284095075 0 0 0
4219 1 3100.0 0.0001551843998950134 0.008183812556080097 0.013314024548407738 0.006359959380842595 0 0 0
4220 1 3100.0 8.349133283522664e-05 0.010266101105139496 0.003948192453702501 0.011670129881828847 0 0 0
4221 1 3100.0 0.00013581227821905518 0.0009946713887794183 0.008207689758416604 0.006716032801750185 0 0 0
4222 1 3100.0 1.0137902599025753e-05 0.010470533527042759 0.004859816125372736 0.004823029696944993 0 0 0
4223 1 3100.0 4.011585751852638e-05 0.009569598547844244 0.015538430936617132 0.009949951969070487 0 0 0
4224 1 3100.0 0.00014163819776572196 0.004631106948634078 0.013010279369742452 0.006574756338467225 0 0 0
4225 1 3100.0 0.00022846324649240338 0.007237612924615151 0.008754895169339584 0.014385859741886905 0 0 0
4226 1 3100.0 6.539534025848411e-05 0.017328786695251862 0.01239770806328177 0.010777034886993022 0 0 0
4227 1 3100.0 7.571012960242156e-05 0.01413892921534186 0.006893573947171406 0.018092158025780927 0 0 0
4228 1 3100.0 5.966961491954483e-05 0.00923783907655357 0.002863829593615575 0.014603633196887792 0 0 0
4229 1 3100.0 7.776462903685308e-05 0.005314338059689902 0.013714548024874477 0.01755833912085013 0 0 0
4230 1 3100.0 4e-05 0.0002209306177130363 0.012224037912999646 0.0128963848749975 0 0 0
4231 1 3100.0 0.00014049785824564828 0.017809927925862643 0.015461587236459753 0.004883561624296565 0 0 0
4232 1 3100.0 7.445344761650387e-05 0.004876208227005016 0.014521894718725177 0.005875575897713244 0 0 0
4233 1 3100.0 0.00016708160415599853 0.015186239386017342 0.0029643513855697494 0.015544333739179338 0 0 0
4234 1 3100.0 3e-05 0.009556560894237334 0.01401642223194547 0.011465492159584038 0 0 0
4235 1 3100.0 3e-05 0.0036052438281615018 0.005294086124220778 0.013360006738941126 0 0 0
4236 1 3100.0 1.0335989562654912e-05 0.004419940684996856 0.013730247629966254 0.010774707128665836 0 0 0
4237 1 3100.0 2.754006219119055e-05 0.0002527690393982844 0.01950645578463298 0.011393778244980278 0 0 0
4238 1 3100.0 1.8094218460598884e-05 0.015754074063703088 0.013245214068739313 0.013404956927384797 0 0 0
4239 1 3100.0 5.993109049697046e-05 0.001873881240689896 0.01762826837029996 0.01810344741929341 0 0 0
4240 1 3100.0 0.00010407364853101365 0.012263242139601243 0.004867177777096359 0.002116718457824324 0 0 0
4241 1 3100.0 1.075475283858155e-05 0.012744812863368642 0.009761528899811868 0.007470792923627293 0 0 0
4242 1 3100.0 0.00012981168918855046 0.005671687467588976 0.0106221803687332 0.0013803573951051075 0 0 0
4243 1 3100.0 4e-05 0.01431543661241901 0.005002650056032391 0.019343324721547227 0 0 0
4244 1 3100.0 0.0001984150453332667 0.003995634266288969 0.003861267602612958 0.008691451862316204 0 0 0
4245 1 3100.0 5.078094440473086e-05 0.002318053491126061 0.0014226192732067424 0.011487317290093144 0 0 0
4246 1 3100.0 6.02880367639732e-06 0.016671180713188252 0.006322557848967805 0.009666364505199183 0 0 0
4247 1 3100.0 0.0001684350388373403 0.001963975736697725 0.010102671702287588 0.018929615513407473 0 0 0
4248 1 3100.0 0.00020493213315893216 0.012967647257437846 0.018026557738329518 0.018610553600332928 0 0 0
4249 1 3100.0 0.00012686879923744178 0.0013038148852412947 0.012674512000193396 0.012223746339468771 0 0 0
4250 1 3100.0 4.526781794779119e-05 0.009530195757427263 0.0023899346715467546 0.009423863120174632 0 0 0
4251 1 3100.0 7.785855881661141e-06 0.018848295043926218 0.00572825261358064 0.0057364346749969744 0 0 0
4252 1 3100.0 9.099802698895478e-06 0.0016453951826282487 0.019850146033965413 0.0043770286187846145 0 0 0
4253 1 3100.0 8.093832610685093e-06 0.005431233143390351 6.111789686613395e-05 0.009217967354470431 0 0 0
4254 1 3100.0 8.18211717749642e-06 0.015388777757142105 0.00887291782885837 0.008796825029606544 0 0 0
4255 1 3100.0 0.00012179450666363597 0.007677248894429695 0.01838437775139667 0.013414292534745784 0 0 0
4256 1 3100.0 4.0707784968764585e-05 0.0018253173055490857 0.0069221487457384575 0.0006763726988016694 0 0 0
4257 1 3100.0 9.60326863245662e-05 0.005716945150206823 0.010079521905842978 0.00670218784093671 0 0 0
4258 1 3100.0 0.00024805647733210345 0.013628954999316881 0.010231277950288973 0.0015661739429487778 0 0 0
4259 1 3100.0 5.442991404466375e-05 0.016017896814217444 0.009454853719137585 0.018886047976702108 0 0 0
4260 1 3100.0 0.00010394740490178514 0.007610699718457732 0.007780202978786435 0.010467438576085925 0 0 0
4261 1 3100.0 0.00023935166787672862 0.006374863126407601 0.016448028960080338 0.016164577278165688 0 0 0
4262 1 3100.0 6.288075077902049e-05 0.0049920579625565295 0.001149847415225332 0.015208940672214342 0 0 0
4263 1 3100.0 0.00011100762226019308 0.015598890545802126 0.0048634226272356645 0.004508277990502359 0 0 0
4264 1 3100.0 1.642683360253316e-05 0.006543568866643184 0.017903413782988077 0.0032922764681690498 0 0 0
4265 1 3100.0 1.3286079172064412e-05 0.0029821724699491334 0.019705647075154632 0.005396549075642215 0 0 0
4266 1 3100.0 0.00011799346969732415 0.006825110454156232 0.009661932000447822 0.008105525793195019 0 0 0
4267 1 3100.0 1.2818781025297132e-05 0.016104555044927815 0.005226761650647783 0.010151322222692171 0 0 0
4268 1 3100.0 1.299731073102131e-05 0.0073146707283434555 0.019777303570667183 0.015849346992288234 0 0 0
4269 1 3100.0 8.176916792235953e-05 0.010420406532976594 0.015945398314323577 0.0025581272593483504 0 0 0
4270 1 3100.0 6.398730112598172e-05 0.0014741481920624532 0.009487811341648266 0.0023503094462378345 0 0 0
4271 1 3100.0 9.568176739546294e-05 0.006078465401082947 0.012390346432283303 0.014284739067403459 0 0 0
4272 1 3100.0 0.00012046397645538213 0.010225129024875466 0.012424474930287656 0.007639278579504194 0 0 0
4273 1 3100.0 1.0015465960404404e-05 0.01494967106710341 0.007210443793535815 0.018976978264897533 0 0 0
4274 1 3100.0 6.070939935142838e-05 0.00678363725086866 0.011031718252612741 0.015312466601857378 0 0 0
4275 1 3100.0 0.00010903916994213918 0.005816347377220232 0.019456277459715957 0.014426808940548085 0 0 0
4276 1 3100.0 6.56241853563191e-05 0.008585057808311172 0.016871833959822308 0.018193178574204383 0 0 0
4277 1 3100.0 1.147185790830612e-05 0.009258148097736292 0.002343643393229315 0.010385299160886936 0 0 0
4278 1 3100.0 6.56651629601359e-06 0.011244272437477875 0.016965964734618224 0.019401700126329465 0 0 0
4279 1 3100.0 6.354498161339953e-05 0.008531440575228732 0.017036265440515806 0.01616684041433323 0 0 0
4280 1 3100.0 4.8473231104517455e-05 0.010947559079407032 0.017553949835727074 0.005186884490540574 0 0 0
4281 1 3100.0 1.3313532836134692e-05 0.0005677831667546771 0.016675535591371735 0.013101752850085099 0 0 0
4282 1 3100.0 9.644238155315148e-06 0.014941900174488845 0.013549603115252743 0.0073092734789480165 0 0 0
4283 1 3100.0 1.5252261066253436e-05 0.002851087468933331 0.0035427260725359126 0.012504286076042462 0 0 0
4284 1 3100.0 0.00011377025455676953 0.017353217548018114 0.014208201994260794 0.014602640249757116 0 0 0
4285 1 3100.0 0.00016452756292896335 0.01494042049438575 0.010377741926301507 0.007706674902411768 0 0 0
4286 1 3100.0 9.884774238092562e-05 0.0018519482157407575 0.012967586264317424 0.0006061104972702064 0 0 0
4287 1 3100.0 6.9039430495852e-05 0.009977004105984847 0.009817087688841002 0.007757769855854557 0 0 0
4288 1 3100.0 2.01677054279716e-05 0.008391225788522843 0.016624268750198623 0.0022825430722521536 0 0 0
4289 1 3100.0 1.3319617540703052e-05 0.0099943834636291 0.002580952411126523 0.007232704116151199 0 0 0
4290 1 3100.0 4e-05 0.00821960570324769 0.017536535575578056 0.01295976176803913 0 0 0
4291 1 3100.0 0.00013741737737767653 0.004106203096625174 0.0032280325940470017 0.0004086285862162002 0 0 0
4292 1 3100.0 5.662417919751495e-05 0.006742433510387297 0.017391197242089557 0.0010475998076766276 0 0 0
4293 1 3100.0 4.587989342261648e-05 0.006899205678911896 0.008126168791324873 0.01158615074391174 0 0 0
4294 1 3100.0 7.624718358370473e-05 0.013353835593594902 0.010572380327960222 0.01567073915397598 0 0 0
4295 1 3100.0 1.4595157253783339e-05 0.00794156049585137 6.519417707791249e-05 0.012910111929941072 0 0 0
4296 1 3100.0 7.611548885430907e-05 0.008388889439777957 0.01166748298242535 0.00766796910324634 0 0 0
4297 1 3100.0 7.300070618845216e-05 0.008481368890270038 0.012956191963923497 0.0175272362684588 0 0 0
4298 1 3100.0 0.00017370252197799818 0.008416757946384574 0.000816168249080478 0.009740576071530506 0 0 0
4299 1 3100.0 2.866008215833141e-05 0.004481118029097718 0.006596354887183832 0.007975241538473813 0 0 0
4300 1 3100.0 3.6371949276234163e-06 0.01681449555857681 0.010621583446929954 0.019644546370552275 0 0 0
4301 1 3100.0 6.186301432887874e-05 0.009180449163360737 0.017472434453215453 0.002358886604172939 0 0 0
4302 1 3100.0 8.09766217029387e-06 0.009710063817263505 0.003431429474720841 0.017390987469722934 0 0 0
4303 1 3100.0 9.297685502064145e-05 0.010070958539948398 0.01556552437339262 0.007163668479922969 0 0 0
4304 1 3100.0 0.0001226471043949146 0.014458122391453807 0.01280022472305294 0.0044927529406528725 0 0 0
4305 1 3100.0 0.00010318796913012066 0.0011803840936839493 0.016505324467438225 0.01889323536545957 0 0 0
4306 1 3100.0 0.0001858005869244314 0.008835855173782515 0.018302211407779656 0.016106813540212404 0 0 0
4307 1 3100.0 0.00011376596864928706 0.014896498545654795 0.007119970283758997 0.01952772509401023 0 0 0
4308 1 3100.0 0.00022994823303539185 0.006908934796957425 0.008379355255966772 0.002332744584834993 0 0 0
4309 1 3100.0 7.358239453954927e-05 0.0036313601948988403 0.00041361254645376825 0.006647434878848029 0 0 0
4310 1 3100.0 0.00012341722324518125 0.018888785206781337 0.0052860559295744795 0.01975360797946498 0 0 0
4311 1 3100.0 1.0916284954313358e-05 0.008393336524904297 0.019170743446001722 0.007985676834179264 0 0 0
4312 1 3100.0 6.4058636897287954e-06 0.016149026783804737 0.012842273681333415 0.0077758938327021025 0 0 0
4313 1 3100.0 3e-05 0.0023452223885351195 0.002023374461785859 0.009736799369325625 0 0 0
4314 1 3100.0 2.099845461105522e-05 0.01470399894808564 0.0013880107847041969 0.01339848327898306 0 0 0
4315 1 3100.0 5.464612200368356e-06 0.01847492333770805 0.009282895782292149 0.014087402828334088 0 0 0
4316 1 3100.0 2.1340472775361092e-05 0.008022414484323063 0.0067921600656042315 0.013248178250397329 0 0 0
4317 1 3100.0 8.106934198967567e-06 0.00020688064560039947 0.01906424933318031 0.012577718064825218 0 0 0
4318 1 3100.0 0.0001508286492842448 0.006946276606091659 0.0006057696939030899 0.00788097430439672 0 0 0
4319 1 3100.0 0.00011355568285138395 0.01624524392582049 0.0196616384316403 0.012474194622831824 0 0 0
4320 1 3100.0 7.876042367553614e-05 0.01624095625462568 0.0035490008043926667 0.011239335359112545 0 0 0
4321 1 3100.0 0.00010783340671695683 0.00597993428718318 0.009617030226391106 0.016284825964387996 0 0 0
4322 1 3100.0 6.54304076884484e-05 0.008874825047759289 0.004010587393168047 0.00031725599508704327 0 0 0
4323 1 3100.0 1.2457448185211462e-05 0.011821453576647125 0.012021139634729856 0.0014672139434467456 0 0 0
4324 1 3100.0 0.0001914441999775254 0.016200932242399612 0.011055548120072015 0.01212562030991188 0 0 0
4325 1 3100.0 8.346027188547542e-06 0.013805516450939383 0.01569283685784155 0.016296534250532367 0 0 0
4326 1 3100.0 5.751396622987796e-05 0.01952502469424557 0.019109340736214942 0.010081608441554224 0 0 0
4327 1 3100.0 1.3963783661312236e-05 0.01785501488814091 0.01713445685553665 0.01116932834021479 0 0 0
4328 1 3100.0 0.00016859321486422047 0.004107978423100853 0.018633968443010098 0.010585748295786927 0 0 0
4329 1 3100.0 4e-05 0.011121026246395839 0.010549813335017014 0.006119611720773913 0 0 0
4330 1 3100.0 4e-05 0.006733399802918981 0.0002441747358233503 0.0029974051904831218 0 0 0
4331 1 3100.0 7.559241598400373e-05 0.01833351682425874 0.015859387877255056 0.010856321412167748 0 0 0
4332 1 3100.0 1.2883122824275482e-05 0.012737901566103146 0.011875167653910317 0.0005000232961696237 0 0 0
4333 1 3100.0 4.825117037194678e-06 0.011701993970782046 0.010289153548268648 0.010547736622001386 0 0 0
4334 1 3100.0 0.00014733734237688332 0.015796659291485687 0.005479085255559635 0.016090934052707583 0 0 0
4335 1 3100.0 1.3746586933912625e-05 0.018833478203113097 0.006731799138269462 0.018065313090751656 0 0 0
4336 1 3100.0 9.195165273832707e-05 0.004563292100324483 0.001684377866936748 0.015342798830692153 0 0 0
4337 1 3100.0 1.4338526549821135e-05 0.005371561441897717 0.005233933800558894 0.007834332028262987 0 0 0
4338 1 3100.0 0.00021199141232450857 0.0073349533033344495 0.014747454329614381 0.012441765925014846 0 0 0
4339 1 3100.0 9.08702491427132e-05 0.012699579621701276 0.018413459452715567 0.010327558118700994 0 0 0
4340 1 3100.0 7.689540726217968e-05 0.008855799204880404 0.0005830990242571534 0.01507665829789833 0 0 0
4341 1 3100.0 4.873534543097968e-05 0.009544304465709268 0.0004771779496282395 0.0018714905003381953 0 0 0
4342 1 3100.0 5.093240826591834e-06 0.0043681728361468835 0.007880051415952997 0.017892580229277963 0 0 0
4343 1 3100.0 8.82874716169574e-05 0.011999594831591848 0.015392636147199826 0.01785339727455768 0 0 0
4344 1 3100.0 5.139066626389937e-06 0.017150341632975928 0.019842991937447815 0.012960458385012648 0 0 0
4345 1 3100.0 8.429040351059357e-06 0.0022612885524613503 0.01196133026695288 0.010629355460400489 0 0 0
4346 1 3100.0 0.00019523233450975593 0.009457052337622635 0.006277352753682859 0.006438921653617357 0 0 0
4347 1 3100.0 7.623369117670525e-05 0.016779309414268775 0.018256003388057166 0.00016363141442910116 0 0 0
4348 1 3100.0 1.4246268377945456e-05 0.009575434567253604 0.011412209906978672 0.017040563543322274 0 0 0
4349 1 3100.0 9.424582798731633e-05 0.01576677605488223 0.01097663256574035 0.005913266656462625 0 0 0
4350 1 3100.0 4e-05 0.0034183351038431283 0.0015091060954100588 0.01920990771916066 0 0 0
4351 1 3100.0 6.662900449652428e-05 0.008597183136677402 0.01971372170923039 0.01741722500456059 0 0 0
4352 1 3100.0 0.0002463751406014812 0.01694121149958209 0.004674550821100864 0.018629588408776643 0 0 0
4353 1 3100.0 0.00011986487744567881 0.014125515230624087 0.018367309438893063 0.0194980743007603 0 0 0
4354 1 3100.0 8.017914480338692e-05 0.017977269898089322 0.0038081054249313293 0.0016848039539123672 0 0 0
4355 1 3100.0 0.00011435536619726736 0.006379650547968546 0.019035250259472697 0.004246440563320075 0 0 0
4356 1 3100.0 0.00012849920860521258 0.01906905731812101 0.013213509581634836 0.0012434926163244486 0 0 0
4357 1 3100.0 1.3262798090488463e-05 0.0007211189939946643 0.004010844327124306 0.012088063571713888 0 0 0
4358 1 3100.0 1.0168188547464584e-05 0.004335138940524035 0.005401511796931364 0.01946375540357253 0 0 0
4359 1 3100.0 6.30476559183987e-06 0.0061322175778933665 0.005747269891500125 0.017530792567322585 0 0 0
4360 1 3100.0 6.41410117685587e-05 0.018033343147873693 0.0173706849173931 0.006793634554560872 0 0 0
4361 1 3100.0 0.00011868906952014547 0.013884700770761345 0.011437736842154921 0.006780345760188293 0 0 0
4362 1 3100.0 3e-05 0.009605110021588505 0.007768523786534627 0.017360572223289895 0 0 0
4363 1 3100.0 1.6170427828677714e-05 0.01985849781234042 0.010238796874300128 0.017349328800939746 0 0 0
4364 1 3100.0 0.00012107087990593668 0.003118786713737131 0.004476586965320211 0.0098788645984732 0 0 0
4365 1 3100.0 0.00014453980284082052 0.010196999538334856 0.0033116804586956513 0.009841441095332089 0 0 0
4366 1 3100.0 2.2343065493876062e-05 0.004137275269935441 0.012658667878827707 0.010827442729818748 0 0 0
4367 1 3100.0 9.083178720550658e-06 0.007462129821996514 0.009936639645017774 0.01228797120381143 0 0 0
4368 1 3100.0 1.6691603038814264e-05 0.011605686752989801 0.0172899779038285 0.009999701080722491 0 0 0
4369 1 3100.0 2.604371823686766e-05 0.01916225536703134 0.016797608954451194 0.01569588790831905 0 0 0
4370 1 3100.0 1.881103302956494e-05 0.0052121757595341295 0.006854798834067597 0.005325778850831703 0 0 0
4371 1 3100.0 0.00012040960665546141 0.012027121961385738 0.016727490285404364 0.016716972080500842 0 0 0
4372 1 3100.0 0.00010009105011504634 0.012309321962430493 0.008377354065710909 0.014730815820250666 0 0 0
4373 1 3100.0 0.00010090696703335815 0.019186768970324824 0.013884369140815088 0.013264459649677788 0 0 0
4374 1 3100.0 0.00011236133725511487 0.0006400082482689054 0.005358812982378353 0.014671215113354369 0 0 0
4375 1 3100.0 0.00011863112933096331 0.01723636888568432 0.007275389397620303 0.0031342773999636702 0 0 0
4376 1 3100.0 0.00017228847165649456 0.003582642941164459 0.004625819933019604 0.010044481047837697 0 0 0
4377 1 3100.0 1.4234268129968704e-05 0.0036169518526834176 0.01344741111702038 0.005935514295440962 0 0 0
4378 1 3100.0 0.00013295394417287766 0.017307687271553615 0.007892436975523396 0.017749056537092106 0 0 0
4379 1 3100.0 6.492228990628893e-05 0.009321649704440717 0.005665452094699999 0.00031581413964132187 0 0 0
4380 1 3100.0 7.544416018945736e-06 0.01909265345199542 0.004825172773225542 0.0010518595455285048 0 0 0
4381 1 3100.0 8.737864223522128e-05 0.010170814399289166 0.018020557502105773 0.012159224821744603 0 0 0
4382 1 3100.0 1.714186211128294e-05 0.014643802616604007 0.0066210089462247785 0.011058076956485455 0 0 0
4383 1 3100.0 0.00020484339058544852 0.016386973977583486 0.004195033271934895 0.0009177373686555827 0 0 0
4384 1 3100.0 4e-05 0.018764580211097913 0.010153893424744912 0.01788134299446136 0 0 0
4385 1 3100.0 2.667504276679228e-05 0.006841360913178101 0.004607113278366864 0.007194988313908259 0 0 0
4386 1 3100.0 0.000104812802457555 0.0049492186272886785 0.01022280028217607 0.0014276858104607891 0 0 0
4387 1 3100.0 0.00011119021339547517 0.008042663904556034 0.014166495243226355 0.014231056834082748 0 0 0
4388 1 3100.0 9.151968739901764e-06 0.008591975739169535 0.015675429959526387 0.018560759710047774 0 0 0
4389 1 3100.0 8.829837780944634e-05 0.014995703843809917 0.013969894513718726 0.0048186173103355115 0 0 0
4390 1 3100.0 8.803661239008326e-05 0.005808371906072324 0.01191568038533741 0.017656110961969996 0 0 0
4391 1 3100.0 3e-05 0.01772162750277432 0.008936001925096755 0.01631344502083591 0 0 0
4392 1 3100.0 0.0001814576131963605 0.019584684767410793 0.0006984744322286391 0.0008524502775840083 0 0 0
4393 1 3100.0 0.00010160522466011228 0.0029515647705447004 0.0026146915772190913 0.011594990747723072 0 0 0
4394 1 3100.0 9.73859733880648e-06 0.019163352286941028 0.008219250973043525 0.016041869567236463 0 0 0
4395 1 3100.0 4e-05 0.007533621902758902 0.019271109834050847 0.014457482260270509 0 0 0
4396 1 3100.0 2.8931290188002567e-06 0.0066983886604838495 0.018542819013550992 0.016068926270688663 0 0 0
4397 1 3100.0 7.135546341915102e-05 0.01775676050396403 0.008962457612437821 0.015724521439544063 0 0 0
4398 1 3100.0 0.00013179260975343957 0.0001877331168338923 0.004594548864374587 0.002808007275800076 0 0 0
4399 1 3100.0 2.020499261886013e-05 0.007907860387758028 0.007197790609767543 0.008818326063644036 0 0 0
4400 1 3100.0 0.00014799712986315625 0.007653245468927168 0.014480318485977464 0.019044738668660164 0 0 0
4401 1 3100.0 7.726287039731665e-05 0.002275800082157273 0.015362696101712172 0.011077462900427718 0 0 0
4402 1 3100.0 0.000199265025320836 0.011009541210347718 0.01534203221189885 0.013946557782481269 0 0 0
4403 1 3100.0 4.4427912837056114e-05 0.0014205989458760798 0.003545691365210167 0.002089138076063051 0 0 0
4404 1 3100.0 1.9404076257633914e-05 0.008224461346069838 0.007904375828693253 0.005443566532338761 0 0 0
4405 1 3100.0 1.5863558909735246e-05 0.004499782671589427 0.017622192322151703 0.006693957088553245 0 0 0
4406 1 3100.0 7.798700370037789e-05 0.01722323064315604 0.01692878270845215 0.004489817021331986 0 0 0
4407 1 3100.0 1.2523674161481111e-05 0.013936138270910661 0.004576319440842974 0.004756125153185013 0 0 0
4408 1 3100.0 6.975609483750597e-05 0.012828535260896024 0.0026373455942684133 0.007088535066199159 0 0 0
4409 1 3100.0 6.662046094599492e-05 0.019037225089260826 0.00972416068115279 0.0157623178931963 0 0 0
4410 1 3100.0 8.532787098508278e-05 0.015330370694336242 0.0024363337138320665 0.009924164174499624 0 0 0
4411 2 7870.0 0.0003 0.012232324381055914 0.009294371113844357 0.0104736676433148 0 0 0
4412 1 3100.0 8.051897830900654e-05 0.006283813236219362 0.003972524580386089 0.011546762193700304 0 0 0
4413 1 3100.0 1.0343595612472333e-05 0.01932951948104104 0.01605844218721382 0.01659219714519064 0 0 0
4414 1 3100.0 1.195003102074958e-05 0.012633101522707102 0.01594354439432763 0.006563600171619133 0 0 0
4415 1 3100.0 4e-05 0.019059420064584193 0.012248524463003223 0.01744637310528013 0 0 0
4416 1 3100.0 1.2907181012903956e-05 0.006833517728022563 0.01639489521536522 0.01287229525455041 0 0 0
4417 1 3100.0 8.178439876349243e-05 0.006004189862215747 0.0020152703061068473 0.0013970912847271167 0 0 0
4418 1 3100.0 0.0002611608955479722 0.013851654306311832 0.01798912720358909 0.007828950316533736 0 0 0
4419 1 3100.0 5.046188693464847e-05 0.010612383855776146 0.0044359521243268535 0.005995112776362795 0 0 0
4420 1 3100.0 4e-05 0.012129086065953662 0.007318951399307278 0.010789369157367336 0 0 0
4421 1 3100.0 5.7292477956847595e-05 0.010367931484411216 0.002654144788369428 0.0015829024112696463 0 0 0
4422 1 3100.0 8.841922302767603e-06 0.01624562871579416 0.0076575613223387904 0.0069836366947306164 0 0 0
4423 1 3100.0 0.00012641270427386937 0.015819357790275636 0.002255614864231819 0.015318807823200564 0 0 0
4424 1 3100.0 0.00015944942210249175 0.012582731199140159 0.01033662921572756 0.013414951473380139 0 0 0
4425 1 3100.0 7.889825845836094e-05 0.0018284588956022656 0.016265187250636314 0.008048346309646631 0 0 0
4426 1 3100.0 8.407494035937508e-05 0.014077844367373308 0.01633012961456797 0.007387867621692694 0 0 0
4427 1 3100.0 2.6930887084284848e-05 0.00299044300246882 0.00245867949068192 0.0033576627382273846 0 0 0
4428 1 3100.0 6.521791360711796e-06 0.01686420700158212 0.009843853579597545 0.014407849880642797 0 0 0
4429 1 3100.0 5.243930486042349e-05 0.01661579330141409 0.012252159114759948 0.010693345716297343 0 0 0
4430 1 3100.0 8.095193228566953e-05 0.015589257504309551 0.017675061097312254 0.008411264166318174 0 0 0
4431 1 3100.0 6.013914344366522e-05 0.014239289923714439 0.00894022425167041 0.01819491608693496 0 0 0
4432 1 3100.0 5.6815600873590905e-05 0.015558504790675377 0.009214546718373927 0.015814460808656144 0 0 0
4433 1 3100.0 7.286296753444528e-05 0.018689032520031516 0.014795328834427128 0.012215398182749452 0 0 0
4434 1 3100.0 9.58986924460238e-05 0.01651485491072162 0.0022611208775211956 0.0026252925418264925 0 0 0
4435 1 3100.0 1.5476186635134467e-05 0.016598420656689948 0.010951386147229436 0.005690196427176305 0 0 0
4436 1 3100.0 0.00012948409714690608 0.0016890003653800827 0.011790276438987153 0.0016749075513471422 0 0 0
4437 1 3100.0 5.871679589078454e-05 0.006353601337735333 0.004234762453205918 0.011895844413614229 0 0 0
4438 1 3100.0 0.00013658668596038193 0.005285099708792949 0.0048716589155876336 0.00039121262694939935 0 0 0
4439 1 3100.0 4e-05 0.013315922024100979 0.004007402684827029 0.0166024513194271 0 0 0
4440 1 3100.0 2.1839135911260462e-05 0.016151513744080238 0.0012527636341002873 0.006548564830401102 0 0 0
4441 1 3100.0 9.353928832590132e-05 0.00282371143825619 0.0008635679068949986 0.00814862235428265 0 0 0
4442 1 3100.0 6.85002684570414e-05 0.01709141364807236 0.017928102929828958 0.0007383585369094346 0 0 0
4443 1 3100.0 5.783191684906053e-05 0.0006005624895953481 0.0020308208888837114 0.0015790733387696155 0 0 0
4444 1 3100.0 8.414088237267666e-06 0.003155905759998319 0.00928532369711384 0.007086721731270319 0 0 0
4445 1 3100.0 4.9564738894021335e-05 0.006653583829765079 0.015229420626338216 0.01691383219888846 0 0 0
4446 1 3100.0 4.2790695334310064e-05 0.0029970265793350394 0.015002818259778821 0.005678524560148333 0 0 0
4447 1 3100.0 7.375750260329925e-05 0.009241250412121354 0.010308783982758318 0.0009657461577920525 0 0 0
4448 1 3100.0 1.3438708128394312e-05 0.01764610185418088 0.003690859211157357 0.0016454929226026945 0 0 0
4449 1 3100.0 1.8598304838269103e-05 0.01251434199433521 0.019624881803218093 0.006767640754756994 0 0 0
4450 1 3100.0 8.136015087007404e-05 0.011972942613756846 0.012527507060433984 0.0070602330772684295 0 0 0
4451 1 3100.0 5.288731290516677e-05 0.0031096661303365953 0.0009160579349638099 0.014067885164782823 0 0 0
4452 1 3100.0 7.673788683860064e-06 0.011260490043677324 0.009811127393064886 0.019009289863722034 0 0 0
4453 1 3100.0 5.567005528448597e-05 0.008650619328235175 0.014316907295732702 0.018545082826714947 0 0 0
4454 1 3100.0 0.0002861952001971648 0.013583422427592588 0.016028399259767963 0.008057196014888638 0 0 0
4455 1 3100.0 5.615484931496924e-05 0.01692303214583595 0.006797109218108606 0.0064995427516203325 0 0 0
4456 1 3100.0 8.900406897260889e-05 0.018118403830824786 0.014558524457986487 0.014783117568259037 0 0 0
4457 1 3100.0 9.65918106707513e-06 0.015764741088329214 0.0019479347533735711 0.012953255147431352 0 0 0
4458 1 3100.0 7.255557019566783e-05 0.0168172058035031 0.00013669110289648802 0.00815109040902107 0 0 0
4459 1 3100.0 0.00012894967797146377 0.017020183107219256 0.013471093865701186 0.006165364355498272 0 0 0
4460 1 3100.0 1.459189335471621e-05 0.01911932755127172 0.019075220320642433 0.017575096762248558 0 0 0
4461 1 3100.0 0.00016427731576792266 0.007971286043295708 0.014607875247204105 0.013519672385125811 0 0 0
4462 1 3100.0 6.793002256242446e-06 0.011099261939052493 0.002647700554437055 0.0006423324393855386 0 0 0
4463 1 3100.0 0.00013207457363556034 0.00867591314385784 0.01642972268234982 0.01868527257359098 0 0 0
4464 1 3100.0 9.239490772035684e-06 0.013475616213893208 0.008989270535930212 0.017683846650678715 0 0 0
4465 1 3100.0 5.1191256871688835e-05 0.019717037467438053 0.014731511488447143 0.017955165320696957 0 0 0
4466 1 3100.0 0.00010736059533812143 0.008567853797987685 0.008171350712165994 0.004489537696109062 0 0 0
4467 1 3100.0 0.00010685645934053014 0.014132205400898292 0.00883500085873193 0.016404480424647493 0 0 0
4468 1 3100.0 0.00014189606461790169 0.0030472764356628394 0.008142929904867096 0.010045802578040658 0 0 0
4469 1 3100.0 4e-05 0.003039828703296797 0.0025686988169505657 0.006673856275925066 0 0 0
4470 1 3100.0 1.1922829933111827e-05 0.0064129051916778845 0.0020379678844025407 0.018992747345632593 0 0 0
4471 1 3100.0 6.525689031385538e-05 0.005057904554091878 0.014447237399746217 0.018567177422580433 0 0 0
4472 1 3100.0 6.0710977604154604e-05 0.002455899260767388 0.017741328236841207 0.01457694082362573 0 0 0
4473 1 3100.0 1.2754950099064344e-05 0.00044078264611191 0.01695658556981901 0.011921423706346084 0 0 0
4474 1 3100.0 0.00011899023878341182 0.01264735437757524 0.01040173218372119 0.0011386415048818355 0 0 0
4475 1 3100.0 6.345478538244076e-05 0.01793593667495888 0.01560033975336615 0.00596320348700365 0 0 0
4476 1 3100.0 1.477446046276939e-05 0.004797335322788362 0.015207321447295032 0.003947691543532038 0 0 0
4477 1 3100.0 0.00017537919966917573 0.00902579669464261 0.016150470452279894 0.015046402934805008 0 0 0
4478 1 3100.0 5.6328327985179745e-06 0.00136255489060826 0.01828750406748688 0.013570966529580439 0 0 0
4479 1 3100.0 7.221985742861215e-05 0.014059306864712703 0.001979374715007454 0.013025439415541969 0 0 0
4480 1 3100.0 0.0001354932465455848 0.0024502669170795833 0.015851065587587965 0.010680213903106221 0 0 0
4481 1 3100.0 6.761641888052797e-05 0.017754356868187344 0.015472186783094666 0.0006690157438449091 0 0 0
4482 1 3100.0 0.00011077345754034085 0.008800390869966219 0.0037196401277560832 0.0014262627940716793 0 0 0
4483 1 3100.0 2.3694832839302416e-05 0.017392841317003457 0.005496674817774092 0.00446014710424966 0 0 0
4484 1 3100.0 8.373515061142365e-05 0.011596448573223738 0.000409438694949853 0.011359840086107367 0 0 0
4485 2 7870.0 0.0003 0.0073120126432833065 0.00908750466520052 0.0006061741292765221 0 0 0
4486 1 3100.0 1.3152913815819078e-05 0.014399848300981087 0.006650918311832052 0.009784791324368854 0 0 0
4487 1 3100.0 9.993102360132282e-05 0.003505694706462227 0.00808668389474974 0.01617199478269487 0 0 0
4488 1 3100.0 3e-05 0.0048555050976101174 0.006471089486853652 0.013639040853998127 0 0 0
4489 1 3100.0 6.856050182823442e-05 0.018956680424807807 0.011465002273727863 0.00835821493457436 0 0 0
4490 1 3100.0 8.09077299143638e-05 0.007421905221398594 0.0033764647969857895 0.003927644189447848 0 0 0
4491 1 3100.0 3e-05 0.01714718276847406 0.0018907106325191578 0.017128699786884437 0 0 0
4492 1 3100.0 5.677238164131898e-05 0.0014231656460886952 0.005189127926578678 0.0051371386821656515 0 0 0
4493 1 3100.0 0.00010397728106597702 0.015250571453516104 0.0019221977219531481 0.0005155506153446811 0 0 0
4494 1 3100.0 2.288016696440767e-05 0.006394702165106378 0.0036148562421533153 0.004199256648337167 0 0 0
4495 1 3100.0 0.00012113769623875619 0.0011975862389131033 0.009917858287532067 0.00552418967825344 0 0 0
4496 1 3100.0 0.00011624066925207363 0.010687398661650388 0.003571963936071887 0.010364093835843982 0 0 0
4497 1 3100.0 4e-05 0.010545206038970925 0.004589419224892244 0.010766414762197325 0 0 0
4498 1 3100.0 9.501135561822414e-06 0.004287307420881307 0.005690767582599909 0.015933897367871208 0 0 0
4499 1 3100.0 5.523257554851558e-05 0.0069314056257479386 0.01413565668766158 0.004011315235421701 0 0 0
4500 1 3100.0 0.00015064848023868177 0.007376490385218146 0.016829183684377576 0.01352281219871482 0 0 0
4501 1 3100.0 7.443243562267015e-05 0.010297503297853575 0.0018720354507761998 0.004886522112698049 0 0 0
4502 1 3100.0 9.082215957833834e-06 0.009500540463435278 0.019524505581486804 0.01353602039966193 0 0 0
4503 1 3100.0 6.411888363053235e-06 0.00875242033195919 0.007821604466653885 0.009419203061652951 0 0 0
4504 1 3100.0 2.8070564333161958e-05 0.01584985074383416 0.010072371451306725 0.011232566869658032 0 0 0
4505 1 3100.0 1.641070440385144e-05 0.0011542620278328494 0.011063523061216598 0.014025281833928198 0 0 0
4506 1 3100.0 5.7629946428277345e-06 0.008094564621827725 0.004748821611587649 0.004656221918801541 0 0 0
4507 2 7870.0 0.0003 0.0010317214812928794 0.017863882453070995 0.000610698615369247 0 0 0
4508 1 3100.0 9.504500646167509e-05 0.018740914307598572 0.011902881821599357 0.01831345930685896 0 0 0
4509 1 3100.0 7.004477892632757e-06 0.018213043513743032 0.008883975972297092 0.015449614873814998 0 0 0
4510 1 3100.0 5.7948089091438926e-05 0.0009915438467901676 0.015559243654728707 0.005142971483506259 0 0 0
4511 1 3100.0 2.167664719542184e-05 0.016710629185817328 0.008286555576232276 0.005078968094620621 0 0 0
4512 1 3100.0 8.791970637656523e-05 0.015265155828733393 0.013253778373160063 0.012567303988023748 0 0 0
4513 1 3100.0 7.477088666151391e-06 0.003684512620834745 0.01916996599927232 0.009703682443901325 0 0 0
4514 1 3100.0 2.0339410533780984e-05 0.01543097688645483 0.007757214093714624 0.009900684428558569 0 0 0
4515 1 3100.0 7.409026421452371e-06 0.0007714628379216189 0.01414648495750426 0.0009587023624834323 0 0 0
4516 1 3100.0 3e-05 0.013629893460889438 0.0003414230029219912 0.003327084722565498 0 0 0
4517 1 3100.0 0.00011443716576096552 0.008340798765128575 0.0020985328061897115 0.005765278551655136 0 0 0
4518 1 3100.0 3e-05 0.004408707334865238 0.017536290028307165 0.002228931244658236 0 0 0
4519 1 3100.0 9.625576056674614e-06 0.009748854956024674 0.009628893142612645 0.012997419700976199 0 0 0
4520 1 3100.0 7.428489272458495e-05 0.012238857823002925 0.014332044287036083 0.011680334412543226 0 0 0
4521 1 3100.0 1.1207463054718956e-05 0.01871123481647247 0.00804476989948202 0.017699223649512656 0 0 0
4522 1 3100.0 9.805869826315487e-05 0.015677229375787877 0.012011220194556289 0.005254344007502616 0 0 0
4523 1 3100.0 9.945939517625218e-05 0.014762158462637556 0.014776773630755616 0.009460419896919219 0 0 0
4524 1 3100.0 2.9524319467584288e-05 0.017226808647460175 0.014900964486498348 0.01825350725478849 0 0 0
4525 1 3100.0 0.00016411010609749838 0.013157133486503658 0.003223124624511699 0.011533248601141884 0 0 0
4526 1 3100.0 0.0001186831930053808 0.01545993242972197 0.015090335400587237 0.01842188985737357 0 0 0
4527 1 3100.0 9.440921887517292e-06 0.00678548336788058 0.016626105750102402 0.009288296824065801 0 0 0
4528 1 3100.0 1.0272133695013737e-05 0.0171579858541597 0.01884997476387543 0.009200153726681995 0 0 0
4529 1 3100.0 7.582921566201244e-06 0.016410021839444906 0.0011473542255526193 0.006413256443661551 0 0 0
4530 1 3100.0 8.815152860381316e-05 0.004820077715194796 0.014168204794121892 0.01918535980964704 0 0 0
4531 1 3100.0 7.511931463843317e-05 0.006060812942553409 0.018692669889424942 0.001458262503203426 0 0 0
4532 1 3100.0 9.594131615015912e-05 0.005325629446396772 0.006381645670239558 0.003397122713700992 0 0 0
4533 1 3100.0 0.00010136970937836064 0.006012229877701978 0.002010039380926321 0.01683153180190466 0 0 0
4534 1 3100.0 6.962090997080133e-05 0.015113185419223938 0.013494307252518966 0.010100974069762292 0 0 0
4535 1 3100.0 2.159844674514393e-05 0.018685274410335063 0.014787751509224904 0.016071970497637953 0 0 0
4536 1 3100.0 1.2747752292048785e-05 0.00911455138862285 0.010034015906639496 0.002240639073424418 0 0 0
4537 1 3100.0 0.0001426249124524541 0.011707436293522715 0.01838177752797653 0.015320828181247996 0 0 0
4538 1 3100.0 5.769861949674179e-05 0.011281688091227307 0.011926006785857325 0.01768510848442829 0 0 0
4539 1 3100.0 0.00011858119600998473 0.008162161715210375 0.014818209033150601 0.012407409814219996 0 0 0
4540 1 3100.0 1.9635026806393633e-05 0.006385823495470086 0.012068790738517545 0.01138517242687471 0 0 0
4541 1 3100.0 0.00010690090488676457 0.016942476064389908 0.017150884305645896 0.016239168081801883 0 0 0
4542 1 3100.0 0.00018311280822735622 0.0016921284944187653 0.012820066935012768 0.010794706687082302 0 0 0
4543 1 3100.0 4e-05 0.003853000930398638 0.013518804492160627 0.016041703567882915 0 0 0
4544 1 3100.0 0.000125115758245112 0.015663761200639486 0.014136072647778242 0.005632710613815283 0 0 0
4545 1 3100.0 0.0001432066815701166 0.016330233647006993 0.0014119739273104393 0.01728979614263732 0 0 0
4546 1 3100.0 0.00021384112685278697 0.0013164327384502365 0.013457780941013173 0.006342466098541859 0 0 0
4547 1 3100.0 1.4604986084926945e-05 0.017067299948625464 0.012222267971395372 0.00939536198358085 0 0 0
4548 1 3100.0 7.371224700106972e-06 0.018425410563073764 0.0031790561898516717 0.004565360792772866 0 0 0
4549 1 3100.0 0.00013914597129119203 0.004419280925994828 0.0009895587143413324 0.019221326989890392 0 0 0
4550 1 3100.0 2.3474094359064733e-05 0.0008293756741711865 0.005569807900227629 0.009681671584359735 0 0 0
4551 1 3100.0 9.919486788221083e-05 0.017706335576273838 0.00976998329556614 0.0045145060731630405 0 0 0
4552 1 3100.0 4.00929735786816e-05 0.01157715614066892 0.004901655961816927 0.0063551068813595376 0 0 0
4553 1 3100.0 9.521998403956222e-06 0.004121599737140339 0.0018261069390712722 0.013541726847665043 0 0 0
4554 1 3100.0 7.130052124197035e-05 0.01373945377847923 0.009726154835161108 0.009722440637094081 0 0 0
4555 1 3100.0 7.56664866125654e-05 0.01711171932642334 0.0066948202523086624 0.00832169292094349 0 0 0
4556 1 3100.0 9.439015181111765e-06 0.003282611568180306 0.012026281519309078 0.004235820882081744 0 0 0
4557 1 3100.0 5.574601309789228e-05 0.016296747490928527 0.0038189197936767793 0.006346691164893705 0 0 0
4558 1 3100.0 4.693310190004636e-05 0.019667309260711772 0.0192786047199716 0.0054991899210431044 0 0 0
4559 1 3100.0 0.00015909067377158653 0.010834147049796464 0.0036032322347183563 0.008545194325564723 0 0 0
4560 1 3100.0 8.992032053014972e-05 0.010039450451894688 0.016150486021941073 0.018188612572987106 0 0 0
4561 1 3100.0 0.00016072264772719853 0.009323059969816812 0.010916817753432785 0.00878495872530495 0 0 0
4562 1 3100.0 4.215820327799973e-06 0.011629191786326381 0.005020715316123352 0.011405735942855507 0 0 0
4563 1 3100.0 5.2446584155121665e-06 0.0018227434818144604 0.013044249953297945 0.005885275534458234 0 0 0
4564 1 3100.0 0.00012434034856927204 0.010726579043135153 0.015381992638639534 0.010077918912711507 0 0 0
4565 1 3100.0 4e-05 0.005331908724188798 0.006189277627200601 0.004746664959583515 0 0 0
4566 1 3100.0 7.29125527183635e-05 0.018050679321909027 0.014377782877814198 0.012457155139844866 0 0 0
4567 1 3100.0 0.00013125103130177005 0.004083728040061654 0.008041068914833352 0.016776853784735146 0 0 0
4568 1 3100.0 9.951999279146009e-05 0.007005718332710274 0.003297520066462003 0.018484384741886756 0 0 0
4569 1 3100.0 0.00015682366008871988 0.0007562614283618541 0.01225240211387232 0.019332113462347526 0 0 0
4570 1 3100.0 4e-05 0.015903968028138413 0.017846470263987214 0.01114443489657785 0 0 0
4571 1 3100.0 3e-05 0.011111030619944475 0.018664643825407508 0.0015613027645714262 0 0 0
4572 1 3100.0 0.00013138821771860695 0.010459134592655054 0.017954388786696543 0.015004793289185907 0 0 0
4573 1 3100.0 7.935919747362518e-05 0.012394140058122791 0.006512888023679753 0.01912276611944359 0 0 0
4574 1 3100.0 7.112486608296681e-05 0.015134926519111412 0.009261514389513139 0.01458663163025634 0 0 0
4575 1 3100.0 1.8061134404034664e-05 0.01741440957268603 0.006675661509691827 0.013303470631141165 0 0 0
4576 1 3100.0 0.00012805294960303683 0.008570313394035647 0.013614203164328615 0.014247238717371097 0 0 0
4577 1 3100.0 0.00012826343143035074 0.008044607700373706 0.005124989755732074 0.01061207605167072 0 0 0
4578 1 3100.0 0.0001407004133475252 0.007949213185009123 0.013235912438864603 0.014802653063595628 0 0 0
4579 1 3100.0 5.709449826493424e-05 0.012733666190947814 0.0077104546669193134 0.016675273427581343 0 0 0
4580 1 3100.0 7.327995770672583e-05 0.007653077159620168 0.0033926263362449274 0.0035786179050636504 0 0 0
4581 1 3100.0 4.16481207181497e-05 0.011299556226638254 0.0010090231778075317 0.004326612337363309 0 0 0
4582 1 3100.0 7.933291055309011e-06 0.010723170092867301 0.016928073676077668 0.011381871166547769 0 0 0
4583 1 3100.0 1.973544215952414e-05 0.018049037367351584 0.017681910311886474 0.014549076460345376 0 0 0
4584 1 3100.0 6.870837572518639e-06 0.003072953065057392 0.013781787336475006 0.004431412494287718 0 0 0
4585 1 3100.0 0.0001223612307593468 0.01733568641304213 0.01975401478586189 0.00144069056534828 0 0 0
4586 1 3100.0 9.142457160381757e-06 0.009028821343714404 0.0017496119285664458 0.012014442597752759 0 0 0
4587 1 3100.0 0.00015020271942023866 0.0036164752316971594 0.0007722791817949895 0.014816252164427281 0 0 0
4588 1 3100.0 1.7838541685737766e-05 0.018864530197560327 0.010691047197718778 0.0028091918452121415 0 0 0
4589 1 3100.0 8.343272764985957e-05 0.013419814217884718 0.012655615925852839 0.0027096851124488596 0 0 0
4590 1 3100.0 9.135402319551695e-05 0.008333863485586675 0.01255666158718311 0.002656258258858753 0 0 0
4591 1 3100.0 0.00011729981222586842 0.012180435755300539 0.013138112626783268 0.0017735179854295733 0 0 0
4592 1 3100.0 0.00010050403400444551 0.0011465117753374366 0.010630834562199206 0.012413185697425652 0 0 0
4593 1 3100.0 0.00013838831097280515 0.013417301769883561 0.015855435596608403 0.012565923104615339 0 0 0
4594 1 3100.0 0.00011300639876553879 0.015523245445991499 0.010044519205658381 0.00945230756977406 0 0 0
4595 1 3100.0 4.738184997833631e-06 0.01898625236804585 0.006803575740025782 0.010975658912687142 0 0 0
4596 1 3100.0 4.3759619059111745e-05 0.01795184630354112 0.01164721243258151 0.0028033065970772216 0 0 0
4597 1 3100.0 0.0001283459225878179 0.003357967418088405 0.013562032699517907 0.004132363203162997 0 0 0
4598 1 3100.0 1.4798481493685901e-05 0.015623860798424599 0.016971837344460484 0.017011628755440173 0 0 0
4599 1 3100.0 0.00011520446113991502 0.0164861358107188 0.0196375522198951 0.018483754513715304 0 0 0
4600 1 3100.0 0.00010697053082602909 0.0009137045058574111 0.014495975926467815 0.004919953662558347 0 0 0
4601 1 3100.0 8.066101904176441e-06 0.00665808519556862 0.010371961170592385 0.0033299726342431116 0 0 0
4602 1 3100.0 5.8854676570492416e-05 0.005789990772815324 0.008725339315646431 0.0025167905973399866 0 0 0
4603 1 3100.0 0.00011449284509161183 0.016955251326384105 0.008595265610307743 0.010631104816948126 0 0 0
4604 1 3100.0 3e-05 0.017296951864536093 0.019889692937499533 0.00016285120136232876 0 0 0
4605 1 3100.0 6.558712439900676e-05 0.0027436685766626732 0.002266132485328089 0.018091362719065262 0 0 0
4606 1 3100.0 0.0001192397430455388 0.009945807189774137 0.01850549987928148 0.011706246031336133 0 0 0
4607 1 3100.0 0.00014072664412946231 0.0067511007172496125 0.0054056608622147055 0.0024763309481331546 0 0 0
4608 1 3100.0 1.242237530358598e-05 0.016693840684197575 0.019840272656653904 0.0008103337032860109 0 0 0
4609 1 3100.0 2.65863137663123e-05 0.013947309873589615 0.00526243792471045 0.005938658312683742 0 0 0
4610 1 3100.0 0.00011037974469977143 0.001931465060660989 0.014463567373939565 0.019054420600887554 0 0 0
4611 1 3100.0 0.00010468362607987857 0.014735434282373111 0.018213317036519436 0.0030496192671078683 0 0 0
4612 1 3100.0 7.138330689443583e-05 0.017648184445347707 0.01815192163544298 0.005017205772370108 0 0 0
4613 1 3100.0 2.381086082114225e-05 0.01188740429043466 0.019821560182502692 0.00880784037388427 0 0 0
4614 1 3100.0 0.00011058145835024359 0.00670860794582401 0.0036467120685584253 0.019059708369276167 0 0 0
4615 1 3100.0 6.236469966829936e-06 0.019290959483344725 0.010104570051310161 0.013886852839852616 0 0 0
4616 1 3100.0 2.004001857543022e-05 0.012684323961837532 0.00764869930719755 0.01391294975448947 0 0 0
4617 1 3100.0 0.00010015516095677772 0.019526294018420588 0.0015056660540944866 0.016351079053404147 0 0 0
4618 1 3100.0 5.948731863763425e-06 0.010981660514356464 0.0008102574433793101 0.0040466691542703345 0 0 0
4619 1 3100.0 0.00019616456837651157 0.018262732919934237 0.017891150189210673 0.012334519693957996 0 0 0
4620 1 3100.0 4.921064427627534e-06 0.013903766376253283 0.011104969315910937 0.018328647353589436 0 0 0
4621 1 3100.0 4.487183067175814e-06 0.008359914602565837 0.001629754124485903 0.017986983897213735 0 0 0
4622 1 3100.0 0.00018099836299602132 0.008312296880944692 0.013593209656795086 0.018523902034080244 0 0 0
4623 1 3100.0 0.00012704877243787776 0.01846495279171618 0.013838567395208534 0.007010257020727697 0 0 0
4624 1 3100.0 4e-05 0.013507213079044044 0.012896696379111734 0.017203861812800546 0 0 0
4625 1 3100.0 2.9332856858256938e-05 0.0029139589787612564 0.007944235128978504 0.0011188326268192184 0 0 0
4626 1 3100.0 0.00013258808915206114 0.004859325452218438 0.004764547901085115 0.015865171726240485 0 0 0
4627 1 3100.0 0.00018335122456106343 0.00939973579859028 0.016066267198350963 0.00873090312626842 0 0 0
4628 1 3100.0 7.995695679141125e-05 0.0007170930394236473 0.009626764174018854 0.012551677320404166 0 0 0
4629 1 3100.0 0.0001367698315750495 0.010299119865548127 0.0014777804628112482 0.006447426296051447 0 0 0
4630 1 3100.0 0.00010782523566021358 0.0002872227113784996 0.0184565749477386 0.01602592948901911 0 0 0
4631 1 3100.0 0.00010124068865946054 0.01890366565730905 0.007758422952699616 0.006279436875860753 0 0 0
4632 1 3100.0 4.78926889605424e-05 0.0033892683338393264 0.010690515904357139 0.007327133368009041 0 0 0
4633 1 3100.0 0.00014714611770483163 0.00039032650983123016 0.0032704232450341823 0.005634120116362596 0 0 0
4634 1 3100.0 4.9077726717697505e-05 0.012374300530497389 0.015119065902891415 0.009684845920169332 0 0 0
4635 1 3100.0 0.00010499189615539249 0.01955457692515335 0.008313706069121215 0.01798026882291179 0 0 0
4636 1 3100.0 1.1866516248507923e-05 0.0027608918124987177 0.01605576918708231 0.005138170242358912 0 0 0
4637 1 3100.0 0.00013571150085294576 0.005476987568827708 0.015429083343346433 0.009135413846277139 0 0 0
4638 1 3100.0 0.00010907502121243038 0.015851882506862817 0.006536105850908935 0.016279908462267557 0 0 0
4639 1 3100.0 7.611327474884508e-05 0.016294580952881228 0.004621330821697411 0.004984442640807531 0 0 0
4640 1 3100.0 8.793597146572361e-05 0.0035214953592649163 0.012654897979349548 0.00793160456912985 0 0 0
4641 1 3100.0 7.555715570053224e-05 0.0019145789779427228 0.0061768462687715065 0.013682762029190726 0 0 0
4642 1 3100.0 4e-05 0.006339659278309903 0.0007810283230526068 0.003123850178482887 0 0 0
4643 1 3100.0 0.00010686559367378869 0.011663406988570966 0.0001692799296801834 0.018863542476578527 0 0 0
4644 1 3100.0 1.1192626141424925e-05 0.009780117188187195 0.003875432213352266 0.009349730858413494 0 0 0
4645 1 3100.0 9.252136670019554e-05 0.019491545118386456 0.01644776702730722 0.012196887015346632 0 0 0
4646 1 3100.0 0.0001563397257359854 0.017164883544743516 0.0012714469118644159 0.00394352223344391 0 0 0
4647 1 3100.0 7.742060030793236e-06 0.0019314501153199501 0.018111694187079287 0.013873626575127522 0 0 0
4648 1 3100.0 5.5346387211486475e-05 0.012267734903476572 0.005583771801708525 0.01154551162144047 0 0 0
4649 1 3100.0 0.00015868461568167033 0.015522037312330445 0.012114924446759106 0.01621367401413105 0 0 0
4650 1 3100.0 0.00011524584579037917 0.008928387519151499 0.01923422057034301 0.0037565830575264584 0 0 0
4651 1 3100.0 0.00012289198554533878 0.013524520473346362 0.011591530467720426 0.012600703960861404 0 0 0
4652 1 3100.0 4e-05 0.014222147877411781 0.01768926431349602 0.01595741058357497 0 0 0
4653 1 3100.0 9.967569289358102e-05 0.011868359825384367 0.009764336550933287 0.017646466590383277 0 0 0
4654 1 3100.0 0.00010400223614043057 0.00473855303719293 0.011863633159212666 0.0045138363210082645 0 0 0
4655 1 3100.0 0.00012151617331572746 0.004897460470146174 0.0025614904105424425 0.01491967322039809 0 0 0
4656 1 3100.0 5.118066249842759e-06 0.017951663782018523 0.009387109661253171 0.019443029877597263 0 0 0
4657 1 3100.0 8.7887114773157e-05 0.017303769128672146 0.000944970352305048 0.0023026992049383524 0 0 0
4658 1 3100.0 5.0411040838143924e-05 0.019475019005041522 0.019060361325304954 0.015161370650902931 0 0 0
4659 1 3100.0 2.831013488883376e-06 0.016196814500027426 0.007665533375142762 0.018104201253963625 0 0 0
4660 1 3100.0 5.376090960388158e-06 0.018107874615939514 0.005368924280466973 0.01393763066295772 0 0 0
4661 1 3100.0 3.671997754136748e-06 0.01874360401203443 0.0014391446780597226 0.013986901863521653 0 0 0
4662 1 3100.0 8.692202510823009e-05 0.017505546968244162 0.016975522171043398 0.01595741959934553 0 0 0
4663 1 3100.0 3.591609809695751e-06 0.005040906158085014 0.011036714914324917 0.0063434933504279535 0 0 0
4664 1 3100.0 8.699478485025708e-05 0.011899400668918854 0.014527682805796388 0.004472145135873096 0 0 0
4665 1 3100.0 1.6783461884539962e-05 0.008353217431825665 0.005539906064063919 0.006839759255209632 0 0 0
4666 1 3100.0 7.927435334738609e-05 0.014602316877786348 0.011008827393154534 0.0020246928830612745 0 0 0
4667 1 3100.0 0.0002871849713365661 0.006549656494744156 0.00762535952500309 0.005162790902425981 0 0 0
4668 1 3100.0 9.857333478033117e-06 0.01654351768147878 0.0065905273632365325 0.0038536713424321034 0 0 0
4669 1 3100.0 6.330761055420387e-06 0.00987216514182772 0.012275847253886854 0.01512325537684544 0 0 0
4670 1 3100.0 5.2372223387458365e-05 0.008799920060480474 0.013502837465425707 0.017918750378923404 0 0 0
4671 1 3100.0 6.329706211287903e-06 0.010670482200198082 0.00762521578503585 0.01132935184624717 0 0 0
4672 1 3100.0 8.667307170443306e-05 0.01652257357780338 0.01349653947133187 0.011209927983509595 0 0 0
4673 1 3100.0 0.00013732660151382086 0.003816339009790305 0.013837496614144585 0.01984386419725473 0 0 0
4674 1 3100.0 1.0353495149009699e-05 0.0016851060714612827 0.0002600749832810351 0.016414430214140137 0 0 0
4675 1 3100.0 4e-05 0.012181584117840517 0.001228465125125388 0.013373820000277677 0 0 0
4676 1 3100.0 6.60430688313543e-05 0.01450949381735249 0.017907892284611093 0.006342628334625416 0 0 0
4677 1 3100.0 1.3283955741865874e-05 0.012533774851942046 0.015693234807351027 0.01935099660030175 0 0 0
4678 1 3100.0 4e-05 0.014605916322297567 0.01411933675949449 0.015302841630389814 0 0 0
4679 1 3100.0 8.255020520524205e-06 0.0155196020294657 0.005159797963429465 0.007777593225981383 0 0 0
4680 1 3100.0 4.7988348916278345e-05 0.010688625614226635 0.004840583071787518 0.0035882124520381143 0 0 0
4681 1 3100.0 6.57416414658022e-05 0.017616834709083064 0.012247642743706023 0.014926740474898432 0 0 0
4682 1 3100.0 6.684303670892627e-05 0.01968166450787413 0.007245573687526843 0.01845015710208365 0 0 0
4683 1 3100.0 5.906688974720074e-05 0.019715071760251866 0.009421900473383461 0.008853797537163428 0 0 0
4684 1 3100.0 3e-05 0.019811954337814144 0.01197810398968159 0.003346351368747213 0 0 0
4685 1 3100.0 9.515984842480284e-05 0.007189725821804923 0.015154869256609721 0.005705169660087713 0 0 0
4686 1 3100.0 0.0001225877515355579 0.013874709272713408 0.016832389273701957 0.0027692655135551883 0 0 0
4687 1 3100.0 0.0001097244793728312 0.01661541510231058 0.007047192991693098 0.0035305410427770244 0 0 0
4688 1 3100.0 1.2708737021874004e-05 0.00919434612314216 0.010638960970287008 0.010689783667747126 0 0 0
4689 1 3100.0 8.203980883736122e-06 0.005606302604581792 0.01490037134603529 0.008453414418308752 0 0 0
4690 1 3100.0 0.00012172660425613529 0.000518311165729622 0.0008990757762148049 0.00046584775800223436 0 0 0
4691 1 3100.0 0.00014440258635047237 0.008186261131216122 0.0016764616628787163 0.0037479159502875545 0 0 0
4692 1 3100.0 9.074084940871506e-06 0.010863059390488393 0.003909484584784655 0.0009842244017271918 0 0 0
4693 1 3100.0 3e-05 0.008316647924849792 6.487036732807435e-05 0.016471517232212917 0 0 0
4694 1 3100.0 1.2440885085790187e-05 0.018450603419056105 0.01067603011911452 0.007710774163540702 0 0 0
4695 1 3100.0 7.941390261252257e-05 0.018628963904657212 0.00526971680188638 0.00730913969274249 0 0 0
4696 1 3100.0 0.00014525700825714343 0.010521707941068718 0.01387344740859732 0.001201168263146772 0 0 0
4697 1 3100.0 0.00023739188518661383 0.019544619499150446 0.008393922300025676 0.01604952809264527 0 0 0
4698 1 3100.0 5.551021167147695e-05 0.012270263643685435 0.002745971254205445 0.0162352706798788 0 0 0
4699 1 3100.0 8.190182191142876e-05 0.0006672264802940465 0.018905383879031123 0.004979038070790697 0 0 0
4700 1 3100.0 0.00010643550941421927 0.005815268273443617 0.000891113148028122 0.00934666593138265 0 0 0
4701 1 3100.0 4.282094080173686e-06 0.0015585547552609065 0.0059384453443506 0.018085662514250925 0 0 0
4702 1 3100.0 0.00010328675383400638 0.009323121320513376 0.01364042662427109 0.01524512234157796 0 0 0
4703 1 3100.0 4.250392101317492e-05 0.009808803061616958 0.005616099774586685 0.0006330582541185347 0 0 0
4704 1 3100.0 6.840584289157807e-05 0.0009513960801835993 0.0041463716519817085 0.013537672084576891 0 0 0
4705 1 3100.0 1.042548366266178e-05 0.01293292806666791 0.00873310069619996 0.0028197482297981787 0 0 0
4706 1 3100.0 7.407677920532357e-05 0.015896110377715888 0.01728287656177373 0.00420781638318051 0 0 0
4707 1 3100.0 0.0002129615148317934 0.00039592738387651523 0.01748501350674924 0.018298572146179085 0 0 0
4708 1 3100.0 5.500086544303901e-05 0.009176076233027165 0.009895202890048358 0.004337907808082891 0 0 0
4709 1 3100.0 0.00010895951991238895 0.018769097363773548 0.002565572493766611 0.011506572451651407 0 0 0
4710 1 3100.0 0.00010024416615625813 0.016687678245019832 0.008200786599854352 0.012603652765819559 0 0 0
4711 1 3100.0 7.305185532063988e-05 0.0005627070720846617 0.0028381721327080203 0.018784213357281896 0 0 0
4712 1 3100.0 9.25553202885314e-06 0.01011297772203372 0.004727209386052688 0.007314712396440179 0 0 0
4713 1 3100.0 1.2585611864785283e-05 0.007584032931225756 0.013605803468997544 0.01404723528134908 0 0 0
4714 1 3100.0 5.676387612826326e-05 0.011921015267142301 0.01803550745344965 0.014414910766204882 0 0 0
4715 1 3100.0 4.508084342970718e-06 0.00439796879369052 0.0178664439736241 0.010537415378170602 0 0 0
4716 1 3100.0 8.982881231018697e-06 0.01717633313273921 0.01749661005448273 0.008777720044605333 0 0 0
4717 1 3100.0 7.63040573102422e-06 0.0005596238466360846 0.013963713069616922 0.0007318186270318035 0 0 0
4718 1 3100.0 0.00021489204824336034 0.0064166980958849235 0.01975048909699219 0.01010089641992601 0 0 0
4719 1 3100.0 1.4592571109710723e-05 0.01289538777666816 0.008491649653609414 0.01757476233648198 0 0 0
4720 1 3100.0 4e-05 0.011054066077370367 0.004346249365018136 0.0017030407505861098 0 0 0
4721 1 3100.0 1.4350237300230945e-05 0.002956332882521606 0.002596316245985849 0.002628082474617599 0 0 0
4722 1 3100.0 4.892249885459822e-05 0.01533497253899885 0.010952275545800803 0.011710365874110873 0 0 0
4723 1 3100.0 1.387501441058571e-05 0.013993099512176655 0.007045514485607905 0.011154784876321797 0 0 0
4724 1 3100.0 8.384683557580978e-05 0.016455114371328974 0.012509013875489795 0.005433677636405494 0 0 0
4725 1 3100.0 0.0001630775237067958 0.010823482676433568 0.0018870930427241236 0.017080035165616087 0 0 0
4726 1 3100.0 5.616125174589732e-05 0.0019120885972229013 0.0019084987685635834 0.01259622362378542 0 0 0
4727 1 3100.0 8.077422533813916e-05 0.00025463453841965706 0.01585859123601599 0.002804267467374208 0 0 0
4728 1 3100.0 0.00010843609026204353 0.00020497756918341233 0.0024664266660871462 0.004965191238472376 0 0 0
4729 1 3100.0 0.00015055200238593764 0.016256980986576568 0.013042777811927845 0.01843155944402581 0 0 0
4730 1 3100.0 4.19606967807506e-06 0.0022501295752335 0.015078320193333723 0.009713764114061732 0 0 0
4731 1 3100.0 2.146840421869275e-05 0.006024693245789483 0.00037647782404001787 0.014717390207452786 0 0 0
4732 1 3100.0 0.0001029865324163832 0.005673046022158831 0.004414997534572951 0.0004233479591568953 0 0 0
4733 1 3100.0 1.1874736676050252e-05 0.010855284517030014 0.016078694314463265 0.0038406936140813457 0 0 0
4734 1 3100.0 9.7785122476436e-05 0.006020372563590626 0.006755772640550784 0.008051348994415362 0 0 0
4735 1 3100.0 5.484528270973503e-05 0.014113157745964482 0.015372933781519438 0.01224292087910328 0 0 0
4736 1 3100.0 0.00016534779853732436 0.0007828678019050435 0.00944816528533402 0.0059621498185834275 0 0 0
4737 1 3100.0 7.198363274204522e-05 0.003983473961599426 0.014047344992081595 0.005281836286861148 0 0 0
4738 1 3100.0 1.6171170835476446e-05 0.008162048792591517 0.01856572052950439 0.013396458005792826 0 0 0
4739 1 3100.0 7.136512516398037e-05 0.01519576343746448 0.005039251808289759 0.014056841579342052 0 0 0
4740 1 3100.0 1.1553882513205538e-05 0.016232912052777458 0.0014995905455259689 0.011709398403409158 0 0 0
4741 1 3100.0 5.0415788128926695e-05 0.014969643317396308 0.008732195518484689 0.015181015562634537 0 0 0
4742 1 3100.0 5.3092083047127314e-05 0.006560547472641863 0.015343313592724155 0.01092335969099644 0 0 0
4743 1 3100.0 0.00024903417176924117 0.012765534564142976 0.0018735741491799067 0.012065222330525704 0 0 0
4744 1 3100.0 2.0129709633087928e-05 0.016577924616197996 0.013523596457660157 0.008365248710235394 0 0 0
4745 1 3100.0 4e-05 0.015181188270379837 0.009854065964372926 0.012986242719001421 0 0 0
4746 1 3100.0 4e-05 0.017758538195602167 0.0038348245546160997 0.004280034208381192 0 0 0
4747 1 3100.0 6.828997595062283e-05 0.01589882584896874 0.011651796149223929 0.01202517264439669 0 0 0
4748 1 3100.0 4.7672771829935475e-05 0.0011071187976219945 0.01216033083525863 0.017904296647464856 0 0 0
4749 1 3100.0 5.5210501926663706e-05 0.01845857715766542 0.01337996558386621 0.00799664137057723 0 0 0
4750 1 3100.0 5.97197921688083e-06 0.0174555989233815 0.016039726479231114 0.016393720606884394 0 0 0
4751 1 3100.0 1.1340795530106298e-05 0.015085063596302729 0.0054497559583876745 0.0104276860415187 0 0 0
4752 1 3100.0 1.202800360204746e-05 0.0027201265770826276 0.005856797585072915 0.003587200796063504 0 0 0
4753 1 3100.0 0.00012568588806189082 0.014370496258797136 0.002116861623638361 0.0031173920747566723 0 0 0
4754 1 3100.0 5.7845539301714966e-05 0.001957336058925651 0.01642351450423235 0.016205052168484883 0 0 0
4755 1 3100.0 4.86368548535988e-05 0.008017019060472787 0.006783431468654402 0.001419063495514866 0 0 0
4756 1 3100.0 8.504317239541066e-06 0.008729416443346266 0.014143392419138836 0.017739647270765595 0 0 0
4757 1 3100.0 0.00014478589050468857 0.006214886648685764 0.01519950462215343 0.0018307496283125563 0 0 0
4758 1 3100.0 0.00011789119940044682 0.015722380993865852 0.019826976769096463 0.0020595229110843324 0 0 0
4759 1 3100.0 0.00018748966262312412 0.00327595388643169 0.018978046259699788 0.01630550861087514 0 0 0
4760 1 3100.0 0.00011477716818530897 0.009390068345997992 0.010134961626378121 0.013563661261275077 0 0 0
4761 1 3100.0 8.21875038655031e-06 0.004732431861911618 0.011812104450227831 0.00569575022195277 0 0 0
4762 1 3100.0 0.000113735221291381 0.01871760615302312 0.007907375050130215 0.003581826243531532 0 0 0
4763 1 3100.0 5.385405404532031e-05 0.0052427356401412726 0.014234650542997685 0.013923977166265684 0 0 0
4764 1 3100.0 2.8973882968735242e-05 0.0032905507152860285 0.009894661080713596 0.01600211459719143 0 0 0
4765 1 3100.0 8.304701920045367e-05 0.015852347141248165 0.01697502239473955 0.003069369407789949 0 0 0
4766 1 3100.0 9.899448430823439e-06 0.016168423862251795 0.018739130298520333 0.0030007402340460915 0 0 0
4767 1 3100.0 5.311688876715744e-05 0.014947538320223627 0.0019412702954353252 0.00494531657857799 0 0 0
4768 1 3100.0 4e-05 0.002018073719270188 0.005316550495023111 0.011092972981894574 0 0 0
4769 1 3100.0 0.00014992756877774306 0.004035548947988776 0.00586283908135727 0.008114839929101132 0 0 0
4770 1 3100.0 1.119324762448712e-05 0.012124050272949292 0.0030537276803897667 0.009064686666406816 0 0 0
4771 1 3100.0 1.1114097727113364e-05 0.006926038567933325 0.006933647863713496 0.001696370559254003 0 0 0
4772 1 3100.0 3.632834997104141e-06 0.00843480182600662 0.01995187251102683 0.01689413557522028 0 0 0
4773 1 3100.0 0.00014501293983190146 0.001119297214870643 0.01610010206481697 0.002602366586581024 0 0 0
4774 1 3100.0 4e-05 0.0031123711411197145 0.0036739600190677586 0.0003947518037221632 0 0 0
4775 1 3100.0 0.00012215688022333823 0.018981477080620958 0.0010207098082985135 0.01788542126691291 0 0 0
4776 1 3100.0 0.0001581840424179237 0.0075814250994998954 0.013443957881168955 0.011517063334904577 0 0 0
4777 1 3100.0 4.0637067734973565e-05 0.013909773598266516 0.004974104122904678 0.017422128846415644 0 0 0
4778 1 3100.0 6.965338706291284e-05 0.005458021203250087 0.005167951658732823 0.00851012792717392 0 0 0
4779 1 3100.0 0.00025041732730239494 0.0016373735147299183 0.005111280839343197 0.006352071406670023 0 0 0
4780 1 3100.0 5.658325557311348e-06 0.007485405694691544 0.011408421601542264 0.0011281480489134486 0 0 0
4781 1 3100.0 7.137795052189566e-06 0.019558789228185495 0.01312077883434196 0.019581742379078875 0 0 0
4782 1 3100.0 2.6050445249755596e-05 0.007643678155976635 0.005378005571558405 0.0029245058595041835 0 0 0
4783 1 3100.0 5.03590044645495e-06 0.015544281744465826 0.012928236945375465 0.0023462201441677858 0 0 0
4784 1 3100.0 5.028321442148731e-05 0.005008997541453982 0.015302785215143071 0.01955939483937478 0 0 0
4785 1 3100.0 9.569792102824136e-05 0.00775303854750462 0.004497071226549064 0.0033617242744241266 0 0 0
4786 1 3100.0 1.0465699711482381e-05 0.011663420335885969 0.0008001217330116288 0.0006887946160782001 0 0 0
4787 1 3100.0 0.0001127982710907397 0.0016736757300679817 0.0077363751099462095 0.014269089591279666 0 0 0
4788 1 3100.0 5.196167545556676e-05 0.00474176954335254 0.007622710791303484 0.004191458611232548 0 0 0
4789 1 3100.0 4e-05 0.0008217326241185312 0.017960874664395443 0.005497173423856627 0 0 0
4790 1 3100.0 7.76000632981863e-05 0.008763757550022755 0.01189229765869483 0.012546208888988759 0 0 0
4791 1 3100.0 7.736567366523998e-06 0.004365148356953881 0.0016568937116928583 0.0001434047658995488 0 0 0
4792 1 3100.0 8.897374484209057e-05 0.01889287684312506 0.0014516387437387389 0.006552850663571506 0 0 0
4793 1 3100.0 4e-05 0.016777970706184406 0.007556043996763403 0.006868078621855283 0 0 0
4794 1 3100.0 0.00010400852275430875 0.0092811663014536 0.009802968136585606 0.00561286864067846 0 0 0
4795 1 3100.0 0.0001144693731985441 0.011611158562128151 0.010253486512495361 0.0022469010764884618 0 0 0
4796 1 3100.0 7.263908323573323e-05 0.00495843721563678 0.0010137543257548152 0.012850568901856608 0 0 0
4797 1 3100.0 0.00011735604946720792 0.003451347871125714 0.014252129774571376 0.016546605581793886 0 0 0
4798 1 3100.0 9.60280519777396e-05 0.010711928283547124 0.018068430686271175 0.017804345118432825 0 0 0
4799 1 3100.0 4e-05 0.011233852188984239 0.009655218167291745 0.003386243707130064 0 0 0
4800 1 3100.0 1.3472889056510697e-05 0.018781573705851307 0.00985930271914742 0.012526184000533484 0 0 0
4801 1 3100.0 1.5187965671544326e-05 0.0037962071345528084 0.017722168577457755 0.005882219639703037 0 0 0
4802 1 3100.0 4.1746478481841953e-05 0.009343497101610396 0.006756053773956691 0.01310602562031967 0 0 0
4803 1 3100.0 3.7959505765078403e-06 0.017535799905655382 0.016617506511050633 0.01719957844232528 0 0 0
4804 1 3100.0 7.630037945779956e-05 0.006499667723001929 0.0117604303654633 0.0019571713618640476 0 0 0
4805 1 3100.0 2.1024262087729087e-05 0.016235699372636577 0.012538041840019137 0.006076980483038216 0 0 0
4806 1 3100.0 7.867215341276514e-05 0.008529826652664378 0.007793418086371204 0.007574682131272828 0 0 0
4807 1 3100.0 5.4590229000133266e-05 0.017452505538105394 0.010801104777318162 0.008743103942041924 0 0 0
4808 1 3100.0 6.167550113734289e-06 0.0042957587213874465 0.006604845414571514 0.01572106802713626 0 0 0
4809 1 3100.0 6.778903801593159e-05 0.003781479141572538 0.01163368067746785 0.009622580914893503 0 0 0
4810 1 3100.0 8.0642485470914e-05 9.973884806065283e-05 0.019618765623462722 0.01650371227273926 0 0 0
4811 1 3100.0 5.637085871120853e-06 0.002859998230500689 0.0026315223181558396 0.0035267687055245394 0 0 0
4812 1 3100.0 4.168183450571824e-05 0.007097739599278747 0.019334880817140875 0.016061345535585657 0 0 0
4813 1 3100.0 2.1967631941650977e-05 0.001381392081668411 0.007644014873481761 0.0020125696050789185 0 0 0
4814 1 3100.0 7.700384331868288e-05 0.010830756003364953 0.0013454795685885169 0.010170178373243305 0 0 0
4815 1 3100.0 0.00014353580598528757 0.005756750587574052 0.014692539425097299 0.01257608370452604 0 0 0
4816 1 3100.0 1.3836684026252394e-05 0.011692976582784499 0.0009077961877350137 0.018753782553840814 0 0 0
4817 1 3100.0 9.448804247943416e-06 0.008675417955128141 0.016986133031654565 0.017042899896493872 0 0 0
4818 1 3100.0 0.0001886757697651548 0.00326777459520785 0.005144081408122377 0.00811839125523204 0 0 0
4819 1 3100.0 1.8915214316652503e-05 0.014539970856298455 0.018859127865315004 0.0041797944855018485 0 0 0
4820 1 3100.0 6.37425560976176e-06 0.005903599153043343 0.003863457990368237 0.0024960978467848016 0 0 0
4821 1 3100.0 1.976305367725614e-05 0.00892656787567317 0.008502577258462684 0.01296621842853589 0 0 0
4822 1 3100.0 9.022739193878589e-05 0.01624270427785764 0.019214412282692772 0.013229358719525155 0 0 0
4823 1 3100.0 3e-05 0.00821287559388428 0.00957583357310519 0.004806747011538118 0 0 0
4824 1 3100.0 0.000174278510908084 0.0019101659512593774 0.009117842855373696 0.008336514924742248 0 0 0
4825 1 3100.0 1.8648456281314582e-05 0.019562287549171952 0.006432681179768568 0.01469133687369104 0 0 0
4826 1 3100.0 0.00015720685761681585 0.015081810925788036 0.017283680805767466 0.01692315738033506 0 0 0
4827 1 3100.0 7.197365479482167e-05 0.013541624212564317 0.008619873509292672 0.0195775273892721 0 0 0
4828 1 3100.0 0.00015124930824341476 0.01566970994281172 0.01855462928485999 0.0001829924095618807 0 0 0
4829 1 3100.0 1.0774346678592279e-05 0.004464422099444142 0.011935264357923664 0.016167885283006396 0 0 0
4830 1 3100.0 2.6790606310876708e-05 0.012247305229665275 0.002607712135386705 0.017852565174980167 0 0 0
4831 1 3100.0 0.00010911468479902383 0.014129964075763777 0.0007937095573219195 0.01482082435545757 0 0 0
4832 1 3100.0 4.059935383224292e-05 0.007903012579596292 0.00911875616867014 0.0071920160815275415 0 0 0
4833 1 3100.0 1.7413931476889372e-05 0.016413202997070126 0.019912085814835886 0.012841802410898637 0 0 0
4834 1 3100.0 1.6739984750492603e-05 0.00527666214708565 0.019609251088742514 0.019359978531536683 0 0 0
4835 1 3100.0 0.00010201015894806438 0.015019945894726858 0.01982227872540783 0.001939636939897445 0 0 0
4836 1 3100.0 7.024220457987769e-05 0.008215917952122686 0.0003405187501075151 0.002745901556441477 0 0 0
4837 1 3100.0 1.8528019097780004e-05 0.00604968059382101 0.013233334521327337 0.017427175991587263 0 0 0
4838 1 3100.0 2.1461709372688476e-05 0.018384828555905 0.01450683115135091 0.003944783926728977 0 0 0
4839 1 3100.0 5.907904099146379e-05 0.009712775950007017 0.008652346972365046 0.004947540703011012 0 0 0
4840 1 3100.0 5.917523040896823e-05 0.0016923017075881916 0.012734271334880939 0.015953821744848024 0 0 0
4841 1 3100.0 0.0001183521803732928 0.01346687255794044 0.004321795730302792 0.017110440564694764 0 0 0
4842 1 3100.0 5.0684362489448476e-05 0.012865872991810252 0.004838692406116658 0.0006447810498240729 0 0 0
4843 1 3100.0 0.00020679164263835841 0.012521455921729702 0.010723181521231367 0.003747979718344444 0 0 0
4844 1 3100.0 3e-05 0.01822543707970784 0.01135631385181764 0.007824724589391732 0 0 0
4845 1 3100.0 1.3053029933774333e-05 0.009755121682070496 0.0024209824493052405 0.011988337905680284 0 0 0
4846 1 3100.0 0.00018470026005025308 0.012328580744823976 0.010063563557615474 0.0069096500974402866 0 0 0
4847 1 3100.0 4e-05 0.003129109454793342 0.012629596231128037 0.003755217496672497 0 0 0
4848 1 3100.0 1.0205247518781446e-05 0.016271828435987748 0.011711825786414665 0.015739472546670182 0 0 0
4849 1 3100.0 1.4623672098014674e-05 0.0064429652357729395 0.0013155480866150649 0.0011972346374285372 0 0 0
4850 1 3100.0 5.5696255994858805e-05 0.005281672468413897 0.01336073038858063 0.01337952415874 0 0 0
4851 1 3100.0 8.486163058979194e-05 0.008214258062662096 0.018156995512206606 0.0011311203617975604 0 0 0
4852 1 3100.0 0.00014622672257499832 0.008609345374208736 0.0070482044576313475 0.00041358756119350853 0 0 0
4853 1 3100.0 6.317381375871642e-06 0.01837362262328174 0.005260291276888622 0.009136886891641705 0 0 0
4854 1 3100.0 2.9011700542747032e-05 0.007397844082775647 0.009279526136670255 0.009006494760902033 0 0 0
4855 1 3100.0 5.055693620870532e-05 0.01626024374962277 0.014775350152135209 0.005794162461273956 0 0 0
4856 1 3100.0 1.1681884472689076e-05 0.002635688333828499 0.007183354522524896 0.0026646867685966445 0 0 0
4857 1 3100.0 6.71683531370138e-06 0.007321228718824974 0.006445371021406698 0.007579011183362771 0 0 0
4858 1 3100.0 1.0440086610408119e-05 0.011930720040080988 0.018909396372087977 0.00912807187558141 0 0 0
4859 1 3100.0 3e-05 0.0006415309746732468 0.017589355213450012 0.01804898430410933 0 0 0
4860 1 3100.0 2.8385597348923828e-05 0.0030307161846775126 0.008569483099039613 0.0013559612527160668 0 0 0
4861 1 3100.0 9.165763480710188e-06 0.019838322957024528 0.00495826452311483 0.012833445899411619 0 0 0
4862 1 3100.0 4.69286777761407e-05 0.012586012527536158 0.0029294067308639504 0.005817635874816629 0 0 0
4863 1 3100.0 0.00018942953520831142 0.0007783651275648877 0.01689018875597414 0.007383754469095673 0 0 0
4864 1 3100.0 0.00012490715980591056 0.018456067213133757 0.008483648725806746 0.014799128958058063 0 0 0
4865 1 3100.0 1.5607329162354184e-05 0.01236987280278311 0.004289691669790319 0.019389035478001047 0 0 0
4866 1 3100.0 9.146935998198776e-05 0.012291908537774334 0.01283875808176355 0.009657678655755009 0 0 0
4867 1 3100.0 8.327719195430978e-05 0.018943362058379223 0.011358139996018363 0.01837492119414023 0 0 0
4868 1 3100.0 0.00010239219626151888 0.016110077033872003 0.008607835255062077 0.019363851287944385 0 0 0
4869 1 3100.0 0.00014920095224921784 0.018344568772325386 0.00693801964882125 0.008433617347571254 0 0 0
4870 1 3100.0 9.425909068181032e-05 0.019487266208534065 0.016269617924590904 0.005890413128970464 0 0 0
4871 1 3100.0 1.8886336849249518e-05 0.00638202081337668 0.01658494322411278 0.004876960760570893 0 0 0
4872 1 3100.0 4.8697603235012463e-05 0.01825502723166076 0.006823455679217517 0.0033600753908530003 0 0 0
4873 1 3100.0 2.9042470508945428e-05 0.0024281194934216814 0.011964050266268584 0.0068921335808218576 0 0 0
4874 1 3100.0 4.739914705799178e-05 0.007843673233409848 0.004946001208638126 0.013812548249794955 0 0 0
4875 1 3100.0 0.00014702332779665552 0.01876072370636839 0.01630433096665722 0.01811379122680751 0 0 0
4876 1 3100.0 8.042052307933223e-06 0.013257873017164832 0.012517980233681327 0.018632033694465706 0 0 0
4877 1 3100.0 2.0856967975399757e-05 0.005160616671966545 0.0065465136813944915 0.011777645055312183 0 0 0
4878 1 3100.0 0.0001116420886666177 0.016267077741075598 0.005299090037691739 0.008542333961926414 0 0 0
4879 1 3100.0 1.3860319216201816e-05 0.010354812234759337 0.01780563753562645 0.019913784529665392 0 0 0
4880 1 3100.0 1.8030554781476016e-05 0.0018411252374601022 0.016453613574074284 0.010354920980249637 0 0 0
4881 1 3100.0 1.34146287546086e-05 0.009783088257254484 0.016383927918470337 0.01350281881070152 0 0 0
4882 1 3100.0 9.240919536005496e-05 0.015138194314910638 0.013882766057933784 0.007989839485397733 0 0 0
4883 1 3100.0 2.2364949242107692e-05 0.01472386324036352 0.007564853839711514 0.002764930325263024 0 0 0
4884 1 3100.0 1.7714143830797916e-05 0.007801429480581718 0.007159717447082109 0.015988031469748053 0 0 0
4885 1 3100.0 6.11147487341935e-05 0.013862133310110441 0.009047160337527917 0.017870695011700553 0 0 0
4886 1 3100.0 1.074874433439893e-05 0.009549699860677515 0.004968341875342668 0.011699682711489249 0 0 0
4887 1 3100.0 4.937286688391995e-05 0.010663252369365914 0.017721322864341624 0.01501303136118465 0 0 0
4888 1 3100.0 4.5731952759471645e-05 0.009505370170860615 0.011195629628185232 0.011420598130108886 0 0 0
4889 1 3100.0 8.741503516817806e-05 0.013210277042099459 0.0024936545251765863 0.012103589504250757 0 0 0
4890 1 3100.0 1.4125247131996422e-05 0.017688759730160566 0.0075632552917960175 0.0021939834702692953 0 0 0
4891 1 3100.0 4.1471293456490915e-05 0.004999551465437309 0.004931682811538542 0.001616378392918049 0 0 0
4892 1 3100.0 3e-05 0.0013975753502868404 0.0016148449080434716 0.004709991519466324 0 0 0
4893 1 3100.0 5.054101683166762e-05 0.01548681842028132 0.019611848593762804 0.017240701802301393 0 0 0
4894 1 3100.0 8.402835148544515e-05 0.00733401975203917 0.011524786309826283 0.014845550685974915 0 0 0
4895 1 3100.0 8.474033699281705e-05 0.007146644815484532 0.0025056583642332876 0.018582505554270608 0 0 0
4896 1 3100.0 6.287065282028015e-05 0.007997296173281968 0.003234535521232429 0.002168731266534561 0 0 0
4897 1 3100.0 8.817178150813809e-05 0.014562988433204332 0.014554444628163056 0.009567232683320857 0 0 0
4898 1 3100.0 0.00010493515490036032 0.005451638754163556 0.010247652139400742 0.018957535735483932 0 0 0
4899 1 3100.0 8.401580401527046e-05 0.0020256280295125554 0.00020243111719994077 0.005071212077644601 0 0 0
4900 1 3100.0 1.7301921283643682e-05 0.014864196453007683 0.016600033093246674 0.0001952484608908864 0 0 0
4901 1 3100.0 6.590822445144942e-05 0.019250092172967262 0.008052617903098146 0.018545290107988825 0 0 0
4902 1 3100.0 9.292880915060638e-05 0.009963109473468418 0.016024180049852177 0.009014597177712467 0 0 0
4903 1 3100.0 8.208919070131295e-06 0.013199993736817574 0.018467526426840596 0.01988977322797022 0 0 0
4904 1 3100.0 7.590683332607746e-05 0.018184726139385356 0.01879862665993493 0.008560899500784676 0 0 0
4905 1 3100.0 4e-05 0.0009788314103854306 0.009448258183915571 0.006908963597360466 0 0 0
4906 1 3100.0 1.2256254219058992e-05 0.01793407942702225 0.013469005628411237 0.0006013134751698921 0 0 0
4907 1 3100.0 5.594088818830332e-06 0.007648663463752469 0.01962296151770374 0.011350877947999667 0 0 0
4908 1 3100.0 8.414791492803335e-06 0.016160763206030146 0.01517658521876892 0.016317717726894884 0 0 0
4909 1 3100.0 1.1264138044772447e-05 0.013136218440053015 0.017704306818575093 0.01748002201909839 0 0 0
4910 1 3100.0 0.00019365334490163705 0.01912864598388733 0.010055138667122071 0.0011864384870452686 0 0 0
4911 1 3100.0 7.200817869035017e-05 0.018578615002664355 0.004453100131634534 0.012206901176735445 0 0 0
4912 1 3100.0 8.940777424186163e-05 0.0068186077676082296 0.011488080458795543 0.01348657394258249 0 0 0
4913 1 3100.0 4.1595476359538414e-05 0.008912139350134799 0.015323493234738342 0.012723173271663418 0 0 0
4914 1 3100.0 7.961762274944329e-05 0.018778207778563667 0.008318201229731224 0.019438628118907394 0 0 0
4915 1 3100.0 1.718823925796846e-05 0.010627910911528574 0.0079972156498634 0.018210003315614915 0 0 0
4916 1 3100.0 0.00011159741169229451 0.004668321479778139 0.003035712788174771 0.006933715841992116 0 0 0
4917 1 3100.0 5.621357638850459e-05 0.00681056666341708 0.015171002011119542 0.017079333997781155 0 0 0
4918 1 3100.0 4e-05 0.015926239981586102 0.002306405127564747 0.018367698901485076 0 0 0
4919 1 3100.0 4.193044497822489e-05 0.009246946345559531 0.01034136113818773 0.017030656908898774 0 0 0
4920 1 3100.0 4.071199519962001e-06 0.010428656152276184 0.01147993752520976 0.004286426814803876 0 0 0
4921 1 3100.0 7.369769080773276e-05 0.001970496370947288 0.0028155914977417615 0.0030485120874319256 0 0 0
4922 1 3100.0 4e-05 0.013424572762988656 0.003300035731032324 0.01703445661209197 0 0 0
4923 1 3100.0 1.2236918804605225e-05 0.014673395108620242 0.014823179803761804 0.014953285010787193 0 0 0
4924 1 3100.0 0.00015860351551895492 0.00762235477344261 0.007312745507124778 0.0037740372225077185 0 0 0
4925 1 3100.0 1.5054422090169654e-05 0.004849734964590357 0.017390286764010505 0.010498481732143308 0 0 0
4926 1 3100.0 7.09028393247964e-05 0.01466164824443243 0.016699550506286135 0.013321496293257363 0 0 0
4927 1 3100.0 0.00015498348115373383 0.01358516505458283 0.008429925893533348 0.0021385644200929903 0 0 0
4928 1 3100.0 0.0001801503719331861 0.0050913290091158915 0.01734931024305062 0.017205353487650094 0 0 0
4929 1 3100.0 9.619885184984089e-05 0.008209001518891916 0.01848637033384833 0.017009396311034344 0 0 0
4930 1 3100.0 8.77673621218639e-05 0.007074632985784325 0.015000380959340733 0.011713585385946461 0 0 0
4931 1 3100.0 4.6681442011466554e-05 0.019925477470039456 0.0022473603904765624 0.009069280130003686 0 0 0
4932 1 3100.0 1.7134292534356282e-05 0.0129615223096867 0.01995217128886231 0.018999975481045817 0 0 0
4933 1 3100.0 5.0862460069523445e-06 0.012802138534605668 0.013946364842153957 0.018081211839239403 0 0 0
4934 1 3100.0 9.75950045785132e-05 0.015627796280482185 0.01325490585327708 0.016502055183560127 0 0 0
4935 1 3100.0 6.494661439643069e-05 0.0172052141258928 0.017192066656857567 0.015062645541990712 0 0 0
4936 1 3100.0 1.260940471305043e-05 5.023432361866727e-05 0.007872474867214128 0.018121196028317764 0 0 0
4937 1 3100.0 7.459645089554874e-06 0.0013341099334991462 0.015265135985670496 0.002335953825705814 0 0 0
4938 1 3100.0 8.82435791220396e-05 0.0016214919274771958 0.009343605964512622 0.014163051261730019 0 0 0
4939 1 3100.0 1.7442716123358896e-05 0.002903791829792722 0.007281778644649895 0.012697555722141615 0 0 0
4940 1 3100.0 0.00011777261533815845 0.002045612150888301 0.005539698958958801 0.006820982465501574 0 0 0
4941 1 3100.0 6.785848091896711e-05 0.01375577005990452 0.011438107390237439 0.01764072731244326 0 0 0
4942 1 3100.0 5.753601727497759e-05 0.012629037118801282 0.012223045415410205 0.018775222672631788 0 0 0
4943 1 3100.0 2.65824369445673e-05 0.015093717226788924 0.011248337984884912 0.007538155142363196 0 0 0
4944 1 3100.0 0.00015616710189324395 0.019363830438318387 0.00046997807936080235 0.008260739679454059 0 0 0
4945 1 3100.0 0.00013160049612856044 0.004313385351909916 0.006851500456563916 0.010487767081599663 0 0 0
4946 1 3100.0 2.3184049187442168e-05 0.0032898509693473988 0.0008195427777579493 0.003977581398348249 0 0 0
4947 1 3100.0 7.16698084134906e-05 0.0013836336092739048 0.014163825713352087 0.014668773275005308 0 0 0
4948 1 3100.0 7.934501268169531e-05 0.00296372181287721 0.009552417567524675 0.015886707321866787 0 0 0
4949 1 3100.0 7.040563941901009e-05 0.013281667658345455 0.005349558056312337 0.01542913952394756 0 0 0
4950 1 3100.0 0.00010309233591328292 0.017790891914815515 0.0038617894703528444 0.01424365634634238 0 0 0
4951 1 3100.0 1.1893255964610004e-05 0.008905782213152393 0.006565545615137962 0.009219843329788641 0 0 0
4952 1 3100.0 5.70088028305561e-05 0.0055282786296563 0.007166797897865776 0.01230112628762643 0 0 0
4953 1 3100.0 8.190835866381067e-06 0.01688961277099539 0.0011845805815717727 0.010187156519256212 0 0 0
4954 1 3100.0 1.420448396462016e-05 0.019981744473328154 0.00393472342717772 0.010158260330802114 0 0 0
4955 1 3100.0 4.87850278381333e-05 0.010508549228471836 0.01084307006617534 0.019157933426291678 0 0 0
4956 1 3100.0 7.887014314131833e-05 0.014618155462572465 0.010572716150287074 0.019520029823328972 0 0 0
4957 1 3100.0 1.1179046303291179e-05 0.008629778717919484 0.005308669396461886 0.018702382676880406 0 0 0
4958 1 3100.0 0.00010077963182342701 0.012719969074303387 0.004210339051894027 0.013047878525556802 0 0 0
4959 1 3100.0 7.248978435964057e-05 0.008029730160962017 0.015013094093997622 0.012118740035116954 0 0 0
4960 1 3100.0 0.00015375395375837064 0.015655982939377498 0.0051741352856131744 0.010718579594276662 0 0 0
4961 1 3100.0 9.369697230669351e-05 0.001668815982066979 0.009413421334060822 0.006459980224165358 0 0 0
4962 1 3100.0 5.836029865054145e-05 0.0072270654479274785 0.009582979163924843 0.0031195238338924697 0 0 0
4963 1 3100.0 0.0001707673583503244 0.0023257362412345737 0.018585249707489683 0.01490437236474576 0 0 0
4964 1 3100.0 1.1366917041642897e-05 0.016087071637540723 0.015763069230751773 0.005730257901217726 0 0 0
4965 1 3100.0 1.4148196988627176e-05 0.0043722555405221455 0.016177354583855757 0.011585039914008534 0 0 0
4966 1 3100.0 1.1522660037777384e-05 0.004116310490228199 0.00945657000330279 0.005341128395612195 0 0 0
4967 1 3100.0 7.838356074705727e-05 0.013180115329245843 0.0011289644354883987 0.006941222872692673 0 0 0
4968 1 3100.0 0.00013430775990451425 0.0063063959920856665 0.009901153444079708 0.00325854592107251 0 0 0
4969 1 3100.0 0.0001892763045458977 0.01780042621857507 0.0019722935061792443 0.0016768396018439465 0 0 0
4970 1 3100.0 0.0001234600344040502 0.018990426059958432 0.00270967766637061 0.005142983890899274 0 0 0
4971 1 3100.0 6.660622800093193e-05 0.0058740056650574395 0.019465434493383237 0.012318705819737137 0 0 0
4972 1 3100.0 9.773533043717636e-05 0.003966129578831988 0.015566842626969661 0.010419784647185406 0 0 0
4973 1 3100.0 9.450339857224464e-05 0.015467357794491633 0.008470298645720624 0.015210531567092418 0 0 0
4974 1 3100.0 1.38981767877599e-05 0.0005309553474714847 0.014830332304351032 0.0007520644383728251 0 0 0
4975 1 3100.0 0.00023770602304307493 0.007978938095926643 0.007571098950603259 0.01609578434182646 0 0 0
4976 1 3100.0 0.0001248247930103199 0.0011753792249519553 0.003173867484057167 0.0013497022328083919 0 0 0
4977 1 3100.0 2.8396388952584808e-05 0.007594291929788754 0.013561965463806341 0.013768759928018966 0 0 0
4978 1 3100.0 4.1262092739464e-05 0.006683166632529304 0.01744809451173961 0.00023442248835280996 0 0 0
4979 1 3100.0 7.508724392487205e-05 0.019660824601773347 0.008364729187128439 0.0010477670277411284 0 0 0
4980 1 3100.0 7.22047823901923e-06 0.00803179771133387 0.0030960621850168934 0.009467262853336324 0 0 0
4981 1 3100.0 8.60312262439889e-05 0.012977730378130546 0.012856484157848624 0.01715075330881416 0 0 0
4982 1 3100.0 9.722660629496816e-06 0.01648946068818651 0.012674584787073881 0.003963056661579343 0 0 0
4983 1 3100.0 6.213992202197678e-05 0.013890088831158477 0.0031185010252263003 0.012556905268072835 0 0 0
4984 1 3100.0 4e-05 0.01921459168685604 0.013613520515184422 0.006993963107240395 0 0 0
4985 1 3100.0 1.5216914349278254e-05 0.005775233500800827 0.00565966876684175 0.0033234742410681566 0 0 0
4986 1 3100.0 4e-05 0.016569453117414923 0.008199981456444955 0.011053031956960412 0 0 0
4987 1 3100.0 7.54225824391571e-05 0.00022461099945336385 0.011414363344443228 0.01574520746373276 0 0 0
4988 1 3100.0 6.407719122128073e-05 0.008443965379277465 0.017799267718085997 0.017483996405666814 0 0 0
4989 1 3100.0 7.168782676254757e-06 0.012344501420168946 0.007613043693996688 0.004356749797704797 0 0 0
4990 1 3100.0 9.046535744844714e-05 0.015373081818045656 0.0037554055352001523 0.0011010758328408284 0 0 0
4991 1 3100.0 8.146189436053839e-05 0.0021269709885170344 0.01681639959117443 0.013199734482675531 0 0 0
4992 1 3100.0 9.354142851912906e-06 0.017189888310367243 0.0053691476348453095 0.000429158780970362 0 0 0
4993 1 3100.0 0.00011179269832263724 0.007824349701261172 0.002546787918192744 0.007603597316128545 0 0 0
4994 1 3100.0 6.689908926928374e-05 0.009988632052341705 0.00402382002539444 0.004707374941083035 0 0 0
4995 1 3100.0 0.00011473964616043762 0.014605181644934998 0.0165670333745253 0.004775386976502824 0 0 0
4996 1 3100.0 7.028235134419109e-05 0.004466417364795535 0.019045898708751244 0.01387120075005466 0 0 0
4997 1 3100.0 8.362542132540393e-05 0.011285385564291572 0.014693599405062542 0.006596195197345373 0 0 0
4998 1 3100.0 0.00011335036056182645 0.01576289265380788 0.01182427896386136 0.016796614970286873 0 0 0
4999 1 3100.0 0.0001043279730641498 0.019310332521025465 0.006934730360650916 0.00546924543790872 0 0 0
5000 1 3100.0 4e-05 0.008194704344519525 0.0003715813294337049 0.005927246761901674 0 0 0
5001 1 3100.0 4.765831158493568e-05 0.013968057118405975 0.013497472097380132 0.010739080129603335 0 0 0
5002 1 3100.0 0.00011621550927372477 0.00039940278056505187 0.013332337615937922 0.014652093765050582 0 0 0
5003 1 3100.0 0.00012924897447750058 0.01832655982826054 0.00857500157743371 0.013099240399686145 0 0 0
5004 1 3100.0 1.0268162608805326e-05 0.019356499458416554 0.0030115229042561127 0.0032161476691031816 0 0 0
5005 1 3100.0 6.932355004938547e-05 0.013435103131870631 0.000176565552790682 0.0038293609541439214 0 0 0
5006 1 3100.0 1.0993856269108437e-05 0.003757061417329707 0.005732793958821678 0.008991247523009342 0 0 0
5007 1 3100.0 4.490646329779984e-06 0.003720297127317846 0.01768233267501508 0.016661370424027797 0 0 0
5008 1 3100.0 4.964354157215396e-05 0.01697102760035173 0.005146964595890871 0.01665514081424717 0 0 0
5009 1 3100.0 0.00012197258254016052 0.0058201692612993286 0.014577363563037796 0.017672829293423106 0 0 0
5010 1 3100.0 2.0703835659267985e-05 0.019209996691980362 0.010732863806413478 0.016986427957676728 0 0 0
5011 1 3100.0 4.701343933211948e-05 0.011662475278448783 0.017116973450797154 0.008193030295398817 0 0 0
5012 1 3100.0 5.981852903773103e-05 0.011866613035783768 0.010991502863161987 0.004945936957670868 0 0 0
5013 1 3100.0 4.487799747177079e-06 0.016954385407213782 0.017617616094680072 0.01971103292555735 0 0 0
5014 1 3100.0 8.449405913363178e-05 0.013383216042277834 0.01934799612012902 0.016424178317347073 0 0 0
5015 1 3100.0 8.841020272014707e-06 0.011863091325702178 0.000961464262558483 0.007299422051826769 0 0 0
5016 1 3100.0 8.811721691162335e-06 0.018104762554003565 0.013529916940204174 0.017820541587537334 0 0 0
5017 1 3100.0 0.000141644874980443 0.007583668100041479 0.009879034266819998 0.007800786522874503 0 0 0
5018 1 3100.0 3e-05 0.008743406705599716 0.014522085512536151 0.01883601998249992 0 0 0
5019 1 3100.0 0.00015625893325092345 0.014489647569141693 0.01725394336591101 0.01018586225589364 0 0 0
5020 1 3100.0 7.503180275555141e-05 0.014455309681159031 0.002103503141479925 0.008100803653638565 0 0 0
5021 1 3100.0 0.0001360575433466573 0.014075169346575404 0.003224235606810892 0.01330289340233532 0 0 0
5022 1 3100.0 1.3532883912098646e-05 0.012900833208009874 0.01096348884892627 0.014398997566469476 0 0 0
5023 1 3100.0 4e-05 0.001971071191418786 0.001250609978147793 0.007848971093687656 0 0 0
5024 1 3100.0 4.9031486734250823e-05 0.0019910413027264765 0.015484626191749373 0.009237892983773713 0 0 0
5025 1 3100.0 3e-05 0.015614493003680353 0.005147594708911259 0.017003533263957267 0 0 0
5026 1 3100.0 0.00014281630455205 0.009383789685750302 0.008786643042747908 0.0030565428347325905 0 0 0
5027 1 3100.0 7.122338365756545e-05 0.006479178344275971 0.018214008645338575 0.014827532583010934 0 0 0
5028 1 3100.0 8.520877066290776e-06 0.0027113770572147035 0.0045339660435444375 0.005943703566784379 0 0 0
5029 1 3100.0 0.0001072953023765232 0.017528483429349418 0.012576452777089442 0.011497840864659775 0 0 0
5030 1 3100.0 0.00018500996582656744 0.011897381232088625 0.004947263978292433 0.019575873151470368 0 0 0
5031 1 3100.0 7.656999746766626e-05 0.009675131345059691 0.005439124336896092 0.014258971094162775 0 0 0
5032 1 3100.0 1.1788640450188213e-05 0.0003322370523859178 0.013588332038590169 0.0016138669506134524 0 0 0
5033 1 3100.0 1.0935896798044093e-05 0.015006739742002536 0.01483740634750757 0.003361676444485503 0 0 0
5034 1 3100.0 5.443237668429659e-06 0.0031148057811879594 0.0019489669443980406 0.007333348587555065 0 0 0
5035 1 3100.0 0.0001222192140463138 0.011218154983977057 0.01762028986576165 0.014264888837567088 0 0 0
5036 1 3100.0 2.0757788769395768e-05 0.008645196214507373 0.017043933268374382 0.006525036011383861 0 0 0
5037 1 3100.0 1.9534370296009028e-05 0.013504658333762 0.012225348305196646 0.01189288464286608 0 0 0
5038 1 3100.0 3e-05 0.005274089575241095 0.0025025555629825127 0.012508852286614951 0 0 0
5039 1 3100.0 6.41798702392238e-05 0.014241991495629535 0.012060243110388627 0.016434599024172974 0 0 0
5040 1 3100.0 7.794648990217626e-05 0.016076284124162298 0.0009927043792825267 0.015162843621423639 0 0 0
5041 1 3100.0 0.00010623213976463688 0.004529271276861293 0.010615346920938143 0.013584077764375457 0 0 0
5042 1 3100.0 2.4624462307113456e-05 0.0010306914925284044 0.013803641458385708 0.0018719163999483342 0 0 0
5043 1 3100.0 7.279577395342659e-06 0.006365690000496449 0.013194590583087043 0.017823334033811887 0 0 0
5044 1 3100.0 0.0001416358978092371 0.017933279283745326 0.01794202844309059 0.0023113549077193162 0 0 0
5045 1 3100.0 1.2659931336858595e-05 0.0036161941916999377 0.005547539469387734 0.01672529063154191 0 0 0
5046 1 3100.0 6.216124378363507e-05 0.003266737219664738 0.006748543732204279 0.019920033990391686 0 0 0
5047 1 3100.0 5.913467662784304e-06 0.006283583523866216 0.01713268194378385 0.0038004379911153654 0 0 0
5048 1 3100.0 2.5e-06 0.013777868339576707 0.00025881031362294033 0.01570817361820013 0 0 0
5049 1 3100.0 7.175601695770645e-05 0.012792561860804415 0.004571328379162366 0.018995309564322955 0 0 0
5050 1 3100.0 0.00011935923149685865 0.0016500769605727367 0.013218244159424589 0.01430005016095496 0 0 0
5051 1 3100.0 4.453910787498751e-05 0.003935345960170578 0.005356641205095842 0.001405368773580267 0 0 0
5052 1 3100.0 4.305676490659108e-06 0.0023134757184668387 0.004866632257205657 0.01885644326389438 0 0 0
5053 1 3100.0 5.0109078273258986e-05 0.013930086894182684 0.007383599777824911 0.010573231308542617 0 0 0
5054 1 3100.0 2.0700665891882113e-05 0.012344567008081491 0.012458770892730054 0.015282637488652306 0 0 0
5055 1 3100.0 9.736392809824059e-06 0.005989523215673773 0.001533674364245422 0.01571063341762567 0 0 0
5056 1 3100.0 0.00010195924453730439 0.012433454246397293 0.007055890405713056 0.0038285360958221306 0 0 0
5057 1 3100.0 5.80013929002754e-05 0.0001949872282406733 0.01398989197082374 0.004598380653998404 0 0 0
5058 1 3100.0 8.966205510675045e-06 0.018963825175029064 0.01400114484866196 0.01772630729899467 0 0 0
5059 1 3100.0 1.4205011648795417e-05 0.001606423165841359 0.01967344338678623 0.0008720773272054253 0 0 0
5060 1 3100.0 0.00011058725462510982 0.0018210706282363598 0.004668680004013099 0.013251813128811508 0 0 0
5061 1 3100.0 5.000939543088889e-06 0.008455171913766471 0.007209398414453858 0.005897575960110375 0 0 0
5062 1 3100.0 4e-05 0.018607661944504705 0.0017377416465102378 0.018431393566903456 0 0 0
5063 1 3100.0 5.596708698304589e-05 0.013782461091818816 0.018950824562965173 0.007457696146378907 0 0 0
5064 1 3100.0 4.5943557459179e-05 0.015998557653441742 0.013990275586128613 0.012715748662289108 0 0 0
5065 1 3100.0 5.354473892854986e-05 0.013279940513728397 0.002869988624864151 0.01861334319707377 0 0 0
5066 1 3100.0 8.686525595750509e-05 0.0005742654472234901 0.008781511888357844 0.012810566753291916 0 0 0
5067 1 3100.0 9.019998108685711e-05 0.006202680540229139 0.012576842688654064 0.008906438360996824 0 0 0
5068 1 3100.0 8.50823220850696e-05 0.010430016037163712 0.001138086951279487 0.012561083970869504 0 0 0
5069 1 3100.0 6.239611236307069e-05 0.006379680576064157 0.01729239394016462 0.019613912548334545 0 0 0
5070 1 3100.0 2.518277393973552e-05 0.003513442541370736 0.019955713156284447 0.011641459851179295 0 0 0
5071 1 3100.0 5.338948571065638e-05 0.015553770268753486 0.01115311516484697 0.019271898929665337 0 0 0
5072 1 3100.0 9.421559945391338e-05 0.01483133223199405 0.0014606720116918446 0.010917507744294985 0 0 0
5073 1 3100.0 1.3689165183573595e-05 0.0005638353954732112 0.012053255126133951 0.018322266489732866 0 0 0
5074 1 3100.0 8.24833723361267e-05 0.009902086713745779 0.019816485142933705 0.007752149485362274 0 0 0
5075 1 3100.0 0.00012223372381334928 0.010466618450379297 0.011431429978568075 0.018704064084065476 0 0 0
5076 1 3100.0 1.0191758814449815e-05 0.014775373555802765 0.007661840157115113 0.011839653575287455 0 0 0
5077 1 3100.0 3.949600807407228e-06 0.005663597774368205 0.015711213049308503 0.00677818829800156 0 0 0
5078 1 3100.0 1.2351872735841922e-05 0.00575841266232079 0.01899078976724219 0.019765487608828677 0 0 0
5079 1 3100.0 6.626426831756302e-05 0.009656038062743583 0.016311709831441982 0.005388898654115795 0 0 0
5080 1 3100.0 5.3437518903236653e-05 0.008943808439769923 0.005344571373497692 0.01449681481418464 0 0 0
5081 1 3100.0 6.44985091659361e-05 0.010574244586227643 0.016530912085451845 0.012139510509181023 0 0 0
5082 1 3100.0 4.61611162252902e-05 0.0074637715683215705 0.0023627861309237497 0.013198157762428815 0 0 0
5083 1 3100.0 0.00010405467667348288 0.0025632930855338182 0.0029423176610222698 0.006070443413155287 0 0 0
5084 1 3100.0 4e-05 0.009882703017741322 0.019564054414117103 0.001145761477806289 0 0 0
5085 1 3100.0 1.8685442705255757e-05 0.005323963742623464 0.010611242156406728 0.006849786232918344 0 0 0
5086 1 3100.0 1.821919598104721e-05 0.017783329821985973 0.008941096682081212 0.01649470925970715 0 0 0
5087 1 3100.0 7.354148119810543e-06 0.009611236276691158 0.018484295645325024 0.004914446399979094 0 0 0
5088 1 3100.0 0.0001841714625879481 0.004536439719659864 0.0022860320296360795 0.0035467917956529668 0 0 0
5089 1 3100.0 1.4976776992855591e-05 0.005128023939987204 0.0026088103950981257 0.010833226165314486 0 0 0
5090 1 3100.0 0.0001532580945047173 0.0033310134400923908 0.01616248624184604 0.01224627723314016 0 0 0
5091 1 3100.0 0.00011800775370088905 0.005037903023011835 0.006018698794959954 0.01789312401623233 0 0 0
5092 1 3100.0 1.808103080843338e-05 0.01226706122000124 0.00491233133259839 0.018390392990292426 0 0 0
5093 1 3100.0 6.65008923154816e-05 0.009576055948124834 0.010695713995430626 0.0010913944840570807 0 0 0
5094 1 3100.0 0.0001493931688924633 0.0006263529440465615 0.0009403360110020331 0.0017672822980726024 0 0 0
5095 1 3100.0 4e-05 0.0045865524039382785 0.008499722412396472 0.016635134392787132 0 0 0
5096 1 3100.0 0.00022703377936293508 0.009961640628058908 0.018647971871141835 0.007202411448738939 0 0 0
5097 1 3100.0 0.0001911792153491984 0.004484182073510879 0.0033489355399015566 0.0014538733978809604 0 0 0
5098 1 3100.0 1.4032475467144001e-05 0.005626293996832504 0.007678800588456266 0.016630379639391027 0 0 0
5099 1 3100.0 0.00021246015731279876 0.012265167785798982 0.0034114125057872315 0.017548491979078134 0 0 0
5100 1 3100.0 5.482258840031454e-05 0.01601466564621541 0.007641659981261548 0.011032170926445824 0 0 0
5101 1 3100.0 8.628385955458377e-05 0.010064202876706802 0.016182059390336224 0.013139339881692415 0 0 0
5102 1 3100.0 0.00010899735273665301 0.007588521182130246 0.0006366017676033333 0.010595576033237283 0 0 0
5103 1 3100.0 7.108635030750822e-05 0.005760086158003192 0.0159155003698932 0.0007398828230954288 0 0 0
5104 1 3100.0 9.780219818870632e-06 0.01353900600067156 0.018423800127732627 0.012093008563891937 0 0 0
5105 1 3100.0 8.410215674985152e-05 0.008055848228075764 0.008480960133641852 0.0052578988530952355 0 0 0
5106 1 3100.0 3e-05 0.001295700477700186 0.006443169936784797 0.016513367510919585 0 0 0
5107 1 3100.0 4.073016307405056e-06 0.005904623246023403 0.01763652756289289 0.007849386542231144 0 0 0
5108 1 3100.0 6.371280859194117e-05 0.015447736760216518 0.005509388251899882 0.01939232686364448 0 0 0
5109 1 3100.0 7.162446708459956e-05 0.010917069568711926 9.286933058970652e-05 0.00036990348754999965 0 0 0
5110 1 3100.0 1.0259885647627026e-05 0.01755589381542038 0.0035409750748693495 0.0028227990376223496 0 0 0
5111 1 3100.0 9.388926718704459e-05 0.01762925293282422 0.015413987441676158 0.01981802905063818 0 0 0
5112 1 3100.0 7.710828197349771e-05 0.009383787329496395 0.017557828798121525 0.01541460542745007 0 0 0
5113 1 3100.0 9.950252027973776e-05 0.004888835273073996 0.013935681355239565 0.0007651309438682157 0 0 0
5114 1 3100.0 1.8743737510695628e-05 0.0012539142395377883 0.002619143876223316 6.940398870019969e-05 0 0 0
5115 1 3100.0 7.1363109335176425e-06 0.01918937792378025 0.008104593521153395 0.009115645172861604 0 0 0
5116 1 3100.0 1.3789131073720359e-05 0.01255556230144786 0.01864846594067112 0.011467490956872385 0 0 0
5117 1 3100.0 8.105443058830046e-06 0.01950144840473448 0.001246247608683498 0.018250543040400802 0 0 0
5118 1 3100.0 4.305415938618398e-05 0.007263576047526623 0.019467631179871877 0.014421517702748753 0 0 0
5119 1 3100.0 0.0001063542358397426 0.004794293138970455 0.016238207108008194 0.010481407482275523 0 0 0
5120 1 3100.0 1.4898771271714139e-05 0.013237679286983078 0.0032365656814306 0.01705188694007185 0 0 0
5121 1 3100.0 1.2723127158141714e-05 0.014691295043870706 0.019052909714245995 0.0017439486707513756 0 0 0
5122 1 3100.0 9.606008342019192e-05 0.019700215595357323 0.0029065020001993267 0.005489540671991088 0 0 0
5123 1 3100.0 9.42095202421492e-05 0.01506307115976996 0.010729816131884848 0.014975702378255146 0 0 0
5124 1 3100.0 4e-05 0.0009719417056291248 7.038290436072546e-05 0.011686255891525246 0 0 0
5125 1 3100.0 0.00016945164555963392 0.008988037997244997 0.004695539445380743 0.00330307453876342 0 0 0
5126 1 3100.0 4.283183013672929e-05 0.0037487077709309068 0.0031697669051142436 0.00682583672470477 0 0 0
5127 1 3100.0 1.0121641801896417e-05 0.012303219813364312 0.00047538244294031507 0.0074468992465634275 0 0 0
5128 1 3100.0 5.379355037991443e-05 0.018744228999384268 0.008527506541004627 0.002800843741854544 0 0 0
5129 1 3100.0 5.3062751438528935e-05 0.013423407679591682 0.006809327135367055 0.010846902518972027 0 0 0
5130 1 3100.0 1.132135947852668e-05 0.0125428671941417 0.012343924464981653 0.0003768730620473472 0 0 0
5131 1 3100.0 0.0001473413426013933 0.0022207048262332147 0.015355704751575418 0.01776294997883781 0 0 0
5132 1 3100.0 0.0001241549814328627 0.01799544687522205 0.010167366804090788 0.01925801415698838 0 0 0
5133 1 3100.0 1.3338446935291365e-05 0.014386286796870935 0.0010580437231122513 0.01758368220162852 0 0 0
5134 1 3100.0 6.91968401460659e-05 0.01619428519857478 0.0036392584534362168 0.013964615559588939 0 0 0
5135 1 3100.0 6.738092825283755e-06 0.00041238880725642373 0.016572975157927373 0.019936776154926287 0 0 0
5136 1 3100.0 0.00012508930089190175 0.007258086632160417 0.018143655118349894 0.0023128799140760613 0 0 0
5137 1 3100.0 2.0026205201543946e-05 0.018860394443599566 0.013253461618837142 0.005623135998324972 0 0 0
5138 1 3100.0 1.80033018178671e-05 0.012640721302010799 0.010624840695421113 0.010437232837203398 0 0 0
5139 1 3100.0 5.407036116793507e-05 0.0017906858742676246 0.009548317195715897 0.008980430001060207 0 0 0
5140 1 3100.0 0.00011804441517086627 0.004389119019877662 0.00045803704318658506 0.003512228774372503 0 0 0
5141 1 3100.0 6.727876721402384e-05 0.008017102815276747 0.005138763269523948 0.019616981706625233 0 0 0
5142 1 3100.0 4.793889436712628e-05 0.015184896874435472 0.006172741635897505 0.01307560943267346 0 0 0
5143 1 3100.0 9.996341060066416e-05 0.015321151246579083 0.006050451341597506 0.013058250886526004 0 0 0
5144 1 3100.0 0.00011645995189253252 0.00368038348614508 0.013038899789513156 0.0028798689733458807 0 0 0
5145 1 3100.0 5.114696007672946e-05 0.007409240011102852 0.012466347987448024 0.008226013236860398 0 0 0
5146 1 3100.0 1.1369126380124906e-05 0.01773541636125889 0.01532714114051295 0.019132660004653905 0 0 0
5147 1 3100.0 9.497115705880995e-05 0.005964854028460207 0.01973298413075051 0.0028604444949042645 0 0 0
5148 1 3100.0 8.231866990975907e-05 0.011612070753071222 0.01303979045278736 0.009651772020059199 0 0 0
5149 1 3100.0 5.657484893236456e-05 0.0030328026492608493 0.0014270357901338844 0.003110184765559362 0 0 0
5150 1 3100.0 1.2486880205738161e-05 0.014150583146968767 6.78109336748232e-05 0.01056599434617681 0 0 0
5151 1 3100.0 1.7894726519503746e-05 0.012640997819723995 0.018347678688562328 0.009746987883093992 0 0 0
5152 1 3100.0 8.378987175317446e-05 0.004410490865119382 0.01184665401434209 0.009227774473537703 0 0 0
5153 1 3100.0 5.073298636803758e-06 8.449421525583495e-05 0.01410078117901433 0.011335318546735777 0 0 0
5154 1 3100.0 3e-05 0.018040990180028714 0.0007944469029821966 0.014534557040108524 0 0 0
5155 1 3100.0 9.813442743322927e-05 0.015844705075723373 0.011724387438558765 0.017422822268789984 0 0 0
5156 1 3100.0 3.823895421170018e-06 0.017687045890321867 0.00778474222548637 0.014897919572929024 0 0 0
5157 1 3100.0 0.0001475630099030454 0.00816155630069819 0.0010542164827133354 0.002350651832519565 0 0 0
5158 1 3100.0 9.043987144644348e-05 0.015034203749499942 0.0022343190100479154 0.006462186586331118 0 0 0
5159 1 3100.0 8.010253467004797e-05 0.016400807279096367 0.004497796881347773 0.012663205662405566 0 0 0
5160 1 3100.0 7.664786102969577e-05 0.017963019653435178 0.0001448859393412516 0.002728998876480511 0 0 0
5161 1 3100.0 4.831563328299084e-05 0.0014519574352273902 0.013248729903255348 0.013300082512221145 0 0 0
5162 1 3100.0 0.0001588259359183238 0.009157392504449025 0.009877091766331557 0.01826294760080379 0 0 0
5163 1 3100.0 8.004722505470337e-06 0.017262712290645965 0.016005998773142162 0.006912396714072739 0 0 0
5164 1 3100.0 8.675108448408155e-05 0.01646885949903982 0.003545262541682354 0.004727834127803924 0 0 0
5165 1 3100.0 4.9412885517457694e-05 0.008991705589141419 0.01777852429098754 0.012249761801898197 0 0 0
5166 1 3100.0 0.0001039780835546133 0.001202513848400973 0.011249508195194453 0.019664477259802384 0 0 0
5167 1 3100.0 1.8579063644348566e-05 0.004096910316000299 0.01579656473105531 0.011260327575020818 0 0 0
5168 1 3100.0 4.07371996484667e-05 0.015599449667569067 0.0040789954721099485 0.0186932484122241 0 0 0
5169 1 3100.0 9.603217310663602e-05 0.005035457134743311 0.008449895164854934 0.0013364028908101687 0 0 0
5170 1 3100.0 1.3441545956769835e-05 0.008231601010293783 0.00422085108200391 0.0008083580886734376 0 0 0
5171 1 3100.0 0.00016890960907976687 0.01787396307078157 0.015999115877751782 0.006215951988651971 0 0 0
5172 1 3100.0 5.356596729965733e-05 0.006924137293846709 0.010636066423102072 0.012153457564947333 0 0 0
5173 1 3100.0 7.23172038591049e-05 0.002895091752056212 0.012936313174986705 0.005756562918013615 0 0 0
5174 1 3100.0 7.979271017737712e-05 0.01932626151274956 0.015660080773089207 0.01557756856507757 0 0 0
5175 1 3100.0 7.719597009255138e-05 0.018969294506098147 0.015843785438058925 0.013000268951310123 0 0 0
5176 1 3100.0 9.370545016217133e-06 0.005932566484980108 0.005893246872496641 0.010682555610097406 0 0 0
5177 1 3100.0 0.00027126279527554906 0.0041615990029968495 0.007075923438321186 0.01917683648454817 0 0 0
5178 1 3100.0 0.00017227059094150344 0.006731199380987707 0.011544183099433544 0.007700328540252106 0 0 0
5179 1 3100.0 1.769674069329229e-05 0.011011390226458287 0.016494184760065624 0.007027781438498701 0 0 0
5180 1 3100.0 0.00011361528250027774 0.006740811225341231 0.009174488726214302 0.01674335213929937 0 0 0
5181 1 3100.0 8.131585351132949e-05 0.0027077564212037762 0.012684287750457598 0.018884741434644085 0 0 0
5182 1 3100.0 0.00010553802176131158 0.002956499642130946 0.014578017344962257 0.01754357081928908 0 0 0
5183 1 3100.0 4e-05 0.002419727230563507 0.001090952100625848 0.004279090450780868 0 0 0
5184 1 3100.0 5.045602218248171e-05 0.014403234107199901 0.007680186350972889 0.004400937026596569 0 0 0
5185 1 3100.0 8.311392809760265e-05 0.005723456704184869 0.0166167608681517 0.009513869079872747 0 0 0
5186 1 3100.0 1.6243150198280354e-05 0.0031383877288811255 0.00483788101590176 0.01995569391094048 0 0 0
5187 1 3100.0 5.676347828249906e-05 0.002914259123644092 0.004883991776288911 0.0018379459497343048 0 0 0
5188 1 3100.0 4.1779123036870305e-05 0.0003146780627771022 0.0038657375434041972 0.000698209041520357 0 0 0
5189 1 3100.0 4e-05 0.01875316298263899 0.013746529659983527 0.019518250263813344 0 0 0
5190 1 3100.0 0.00012255846449788665 0.015121823427329996 0.0007274100959375294 0.018220612484192534 0 0 0
5191 1 3100.0 5.4564561247021556e-05 0.0013898280102929421 0.019524078111553357 0.017163308082759923 0 0 0
5192 1 3100.0 7.661740302139406e-05 0.014369372155656392 0.018078858326006 0.011027389753009096 0 0 0
5193 1 3100.0 1.0563950615390936e-05 0.019914469914916945 0.002403927842658217 0.012008927677601231 0 0 0
5194 1 3100.0 6.839438015881187e-06 0.016465920218987403 0.00776302591175059 0.0100949660063753 0 0 0
5195 1 3100.0 3.4462153304930846e-06 0.004144733525635013 0.006814601698089486 0.0024669055388571166 0 0 0
5196 1 3100.0 7.632026022916084e-05 0.0018745011459394931 0.008396552905822145 0.009883952444960303 0 0 0
5197 1 3100.0 0.0001437942877948347 0.010386595286549043 0.01090931510847022 0.0005752142121440215 0 0 0
5198 1 3100.0 1.0154094695341493e-05 0.0025322517927277516 0.0001589104658055382 0.0023557346908887992 0 0 0
5199 1 3100.0 0.00012567891658289134 0.007027230510431259 0.01176281593201381 0.0177787672338094 0 0 0
5200 1 3100.0 8.517263910871046e-05 0.0022978628381956135 0.009565436524962478 0.006979034655723813 0 0 0
5201 1 3100.0 7.589380617189741e-06 0.015892137025302053 0.015870716145677182 0.013650751585262775 0 0 0
5202 1 3100.0 2.1617008201915983e-05 0.016810036960331672 0.00409398185693204 0.019042257273526226 0 0 0
5203 1 3100.0 6.837736034127055e-05 0.00785573511487458 0.009981144285265208 0.002128564956359069 0 0 0
5204 1 3100.0 0.00010026861367921806 0.015399815308949506 0.010632795064123946 0.010331650799999167 0 0 0
5205 1 3100.0 0.0001319930166915431 0.01710408559179304 0.011240990416799011 0.0029872236868792746 0 0 0
5206 1 3100.0 0.00010929744982318645 0.004802219816475218 0.01665967802599995 0.003913224651044301 0 0 0
5207 1 3100.0 4e-05 0.014070555664823644 0.016075551847377266 0.006669215859193808 0 0 0
5208 1 3100.0 5.5536437105132103e-05 0.014379870285671706 0.004663185763373172 0.004383850932636847 0 0 0
5209 1 3100.0 6.166530310914861e-05 0.0060566846956200265 0.0025033262647274597 0.0053204246647156235 0 0 0
5210 1 3100.0 8.866500255537096e-05 0.0035148961398890504 0.012655288564307856 0.0036660786196612513 0 0 0
5211 1 3100.0 5.05744613830597e-05 0.005517483163192571 0.0006981618342881096 0.013066584663259368 0 0 0
5212 1 3100.0 0.000152471465493618 0.0022023978238747727 0.000631424054169478 0.014446544613694257 0 0 0
5213 1 3100.0 7.190183288242813e-05 0.009378292236842804 0.01125874071710694 0.004680320341721736 0 0 0
5214 1 3100.0 5.829725123496556e-05 0.011621327186855233 0.0017626738270629808 0.015700602569968594 0 0 0
5215 1 3100.0 7.868842766050148e-05 0.0061788140240812955 0.014382187655766208 0.007477830987690366 0 0 0
5216 1 3100.0 2.1118533050198965e-05 0.01363253032132572 0.009114423244760313 0.003520554134329456 0 0 0
5217 1 3100.0 4.187208346400479e-06 0.0016628405713725832 0.016486012199180132 0.013679028359109587 0 0 0
5218 1 3100.0 1.3727222744236007e-05 0.011667156276423937 0.018102793702814944 0.017629413977731146 0 0 0
5219 1 3100.0 0.00013250137176371436 0.0073276386411783336 0.0178699219551746 0.012970856491327652 0 0 0
5220 1 3100.0 0.0001106116982058969 0.010338635249979057 0.016723030562875357 0.0033302538021328936 0 0 0
5221 1 3100.0 0.00011993574631958232 0.004625676773551383 0.006063861279844156 0.01527354007694537 0 0 0
5222 1 3100.0 3e-05 0.015186427541961957 0.015921625889194484 0.0029953262745989083 0 0 0
5223 1 3100.0 5.6626983934488725e-05 0.0036767950730721695 0.008268606903798397 0.014780233862277625 0 0 0
5224 1 3100.0 7.417993509891164e-05 0.001223431468557307 0.016131703297399328 0.01846188259478554 0 0 0
5225 1 3100.0 7.143326723196349e-05 0.010415678431903462 0.009490962326618401 0.006926270722675632 0 0 0
5226 1 3100.0 6.671107044927065e-05 0.015903445990620352 0.018974763480033893 0.00562986998241832 0 0 0
5227 1 3100.0 6.562479858886052e-05 0.013340332272056 0.012519525076987554 0.009688759574177348 0 0 0
5228 1 3100.0 3e-05 0.001030887953578514 0.0163134382464804 0.007237473287756734 0 0 0
5229 1 3100.0 0.00010903428241608985 0.017885906282649577 0.007229847289361118 0.010637678811568503 0 0 0
5230 1 3100.0 0.00015165424710214938 0.013380588109164347 0.016756054765669274 0.0165951854732471 0 0 0
5231 1 3100.0 4e-05 0.018540754545886693 0.016957528152890918 0.010545188738869728 0 0 0
5232 1 3100.0 1.1359137754613168e-05 0.012486257260096468 0.014181724317520638 0.014270999609260836 0 0 0
5233 1 3100.0 2.1089406477837118e-05 0.019922085625921935 0.004571660332733007 0.012779901604378802 0 0 0
5234 1 3100.0 9.235428698704062e-05 0.004600009284262291 0.0029917182479954063 0.01082261675145934 0 0 0
5235 1 3100.0 8.226284113163086e-06 0.018818554542255252 0.011100127692593519 0.019585357626405814 0 0 0
5236 1 3100.0 7.5170259594697975e-06 0.015799909154542293 0.0031830253601350155 0.006604323577043735 0 0 0
5237 1 3100.0 0.00017652270243258297 0.004614230622341261 0.018820728839434107 0.014009622789018851 0 0 0
5238 1 3100.0 7.426096777863712e-05 0.001922146384354168 0.019217898630902695 0.016087766879502047 0 0 0
5239 1 3100.0 0.00013820336260076408 0.013644299744348467 0.004463122421565861 0.009173432715345693 0 0 0
5240 1 3100.0 9.182770328961113e-05 0.005593229158612109 0.001100480765260873 0.01741363601515846 0 0 0
5241 1 3100.0 0.00013782850438381515 0.015193037342397131 0.010746310318388947 0.01317961095452605 0 0 0
5242 1 3100.0 1.048490324717655e-05 0.002717603914151923 0.01448747430553908 0.012952808386033889 0 0 0
5243 1 3100.0 0.00015436281060844393 0.011232828282883104 0.015431646327710952 0.006596187241281244 0 0 0
5244 1 3100.0 7.596383240617512e-05 0.0040831209870202745 0.009930729394214098 0.017122890879608582 0 0 0
5245 1 3100.0 7.977293440857496e-06 0.00874052707862848 0.008415860611775825 0.011952752903539258 0 0 0
5246 1 3100.0 6.765707599298605e-06 0.012625916012909206 0.010676969344290745 0.002851633251748965 0 0 0
5247 1 3100.0 1.2249305244148553e-05 0.006431521340291807 0.01637368870263835 0.008995986537752155 0 0 0
5248 1 3100.0 0.00010360282819601532 0.004050946980420265 0.006513485996375369 0.01869705703910764 0 0 0
5249 1 3100.0 4e-05 0.01987138348319451 0.013041644804675673 0.0037442541082146653 0 0 0
5250 1 3100.0 0.00010019369568820257 0.013074066450170882 0.006664434605090203 0.011411877910778507 0 0 0
5251 1 3100.0 0.00014789419662890156 0.006028250365293389 0.014715054337567453 0.01070434164322421 0 0 0
5252 1 3100.0 6.899080416304688e-05 0.016958102805957227 0.005872003951221305 0.019244361396666736 0 0 0
5253 1 3100.0 0.00027466219563420155 0.008165331004713675 0.01637050399059219 0.009150091185524855 0 0 0
5254 1 3100.0 0.00019879975311889577 0.01628988848936361 0.016686404624325128 0.014966874372004004 0 0 0
5255 1 3100.0 0.00011928384146194076 0.013088904566693059 0.01610289809191575 0.010119483919793384 0 0 0
5256 1 3100.0 0.00016636474406472743 0.007132616936817888 0.007390110690444225 0.0015297536572487199 0 0 0
5257 1 3100.0 0.00012723240077758955 0.003205124262306155 0.019206133787627144 0.009825632864484382 0 0 0
5258 1 3100.0 7.67106588186224e-05 0.004851847736790306 0.011457169794493635 0.014071494211691191 0 0 0
5259 1 3100.0 0.00010134538500724494 0.013158837180108914 0.010498653834844588 0.0017215089137921085 0 0 0
5260 1 3100.0 5.279948183458159e-05 0.010127622123812696 0.012918263159795858 0.01773861811688681 0 0 0
5261 1 3100.0 0.00011078039003985455 0.014269315306940138 0.010669112129908722 0.0025635201943313185 0 0 0
5262 1 3100.0 1.1443394813117528e-05 0.01902874147469911 0.0014124250121756964 0.007895991610572691 0 0 0
5263 1 3100.0 6.726264888010144e-06 0.004859483397715369 0.008411145524358397 0.010615360864784268 0 0 0
5264 1 3100.0 0.00010246254888441853 0.018256216475061576 0.017624920139821833 0.0198120677780959 0 0 0
5265 1 3100.0 6.162970842091392e-05 0.0081438486745116 0.014085107039947206 0.010811070242635884 0 0 0
5266 1 3100.0 1.3435015605801766e-05 0.01844888560602055 0.01394532888180286 0.016001473029446645 0 0 0
5267 1 3100.0 5.026495726439724e-06 0.019746522893275328 0.01684143330753028 0.005750987528080273 0 0 0
5268 1 3100.0 4e-05 0.012453690583914743 0.01096452445339943 0.00404215195224458 0 0 0
5269 1 3100.0 1.1589002073295026e-05 0.012082596795536193 0.002986299535799927 0.015154926363030398 0 0 0
5270 1 3100.0 0.00014712491800269895 0.012412843588521861 0.009564260067073924 0.008468953158870971 0 0 0
5271 1 3100.0 7.833298936687348e-05 0.013959891484199557 0.00446275628855361 0.00689225305378884 0 0 0
5272 1 3100.0 0.00010020828452987877 0.000927379704008723 0.01350697376230295 0.0020447778097000516 0 0 0
5273 1 3100.0 5.899007684922911e-05 0.003176405926073342 0.007512884528013518 0.01431261596097598 0 0 0
5274 1 3100.0 4.465649490570688e-05 0.011758676503758215 0.018051015019980732 0.012107387746835648 0 0 0
5275 1 3100.0 5.88593108594198e-05 0.012999541602201311 0.008690654359330904 0.011204817661362753 0 0 0
5276 1 3100.0 7.235296745245077e-05 0.006026197690768933 0.0037605105721411534 0.00938923579592997 0 0 0
5277 1 3100.0 0.00011403106155800353 0.0067227825205467984 0.006729826296275311 0.018299129024756895 0 0 0
5278 1 3100.0 0.00010650864084443317 0.0030015565432800844 0.016780924414450542 0.011603625816887718 0 0 0
5279 1 3100.0 7.121063363801808e-05 0.011811206747477229 0.017570729709684374 0.014721245234667241 0 0 0
5280 1 3100.0 6.0967258354527246e-05 0.004486471940230983 0.007697079397048562 0.0016071255793541307 0 0 0
5281 1 3100.0 0.00010149538340626461 0.012717687420532057 0.018907237239127864 0.013470823540295749 0 0 0
5282 1 3100.0 0.00010045407224165097 0.0038292576273696553 0.007024765314479803 0.0047528168141754345 0 0 0
5283 1 3100.0 0.00010524877695681039 0.007459893539093199 0.0017638084431966785 0.014904298745423738 0 0 0
5284 1 3100.0 0.00010443214497183115 0.008503777104923437 0.018588228834097872 0.015417058963799546 0 0 0
5285 1 3100.0 1.0008018735191083e-05 0.018831149404767964 0.004707821660349905 0.01239870211519191 0 0 0
5286 1 3100.0 9.294327931265755e-06 0.016903742137661156 0.0036849374001378175 0.007483815289698187 0 0 0
5287 1 3100.0 2.5661237226177877e-05 0.0036015646530848117 0.016827383413149523 0.010966073194419064 0 0 0
5288 1 3100.0 1.295324353347738e-05 0.01000872149578707 0.0022519256477812923 0.005712151219418466 0 0 0
5289 1 3100.0 8.062408899676507e-05 0.011416954007647938 0.01835033259684345 0.006287118036217408 0 0 0
5290 1 3100.0 8.930209805423233e-05 0.01700283639783946 0.007701067048747583 0.018610520667984822 0 0 0
5291 1 3100.0 7.5282589951217635e-06 0.0015714312785421736 0.0017637097590972295 0.008609560879238478 0 0 0
5292 1 3100.0 1.4321984148023064e-05 0.0073491692275309585 0.004576711967503773 0.0192676057310076 0 0 0
5293 1 3100.0 0.00011119583427671672 0.010126858463242084 0.019775480571817185 0.01793753501019546 0 0 0
5294 1 3100.0 5.4440657263359265e-05 0.011588009474299376 0.009805962669694086 0.00870713345152854 0 0 0
5295 1 3100.0 0.00010215892682176809 0.0025601016900626715 0.003078322546517747 0.008564340399500442 0 0 0
5296 1 3100.0 7.432068485917366e-05 0.014002073128182923 0.006155330529915615 0.00549354837209408 0 0 0
5297 1 3100.0 4e-05 0.002809385906534662 0.006243580396912738 0.012235243089017895 0 0 0
5298 1 3100.0 0.0002522689407179721 0.015700882208957528 0.015561922492078167 0.006434107817416095 0 0 0
5299 1 3100.0 1.921598191180285e-05 0.017166774835623087 0.010528639694418862 0.008208298602400542 0 0 0
5300 1 3100.0 4.677918443746768e-06 0.01976668210735816 0.00755326652669256 0.0027473640228856512 0 0 0
5301 1 3100.0 0.0001460099529257051 0.008918139600108147 0.010871657388728154 0.008833607537250123 0 0 0
5302 1 3100.0 0.00013545538022815377 0.00849892773534128 0.016951491890189643 0.011926511233034029 0 0 0
5303 1 3100.0 0.00017854171850160356 0.00881415941337448 0.018314257556045464 0.004996510355401454 0 0 0
5304 1 3100.0 4e-05 0.0011606019415770718 0.001330996160266804 0.0006907768838319924 0 0 0
5305 1 3100.0 1.3199398809371413e-05 0.01773873475259148 0.018929762444184685 0.01311568563992364 0 0 0
5306 1 3100.0 9.012720925060518e-05 0.006063625567517075 0.014077394714443494 0.01349817145088057 0 0 0
5307 1 3100.0 1.5823437672537366e-05 0.005215854420693659 0.012064611995381523 0.0021691103792779503 0 0 0
5308 1 3100.0 0.00016222381310258333 0.017196095024467097 0.004955361178187896 0.007039147130829685 0 0 0
5309 1 3100.0 0.00010586814545546539 0.0017531669659249752 0.012918110961058231 0.00285102431138776 0 0 0
5310 1 3100.0 0.00010142836529202175 0.013990166751212963 0.009801479370105745 0.014218438738764123 0 0 0
5311 1 3100.0 1.5042414277533098e-05 0.01942964885054795 0.016472239354721516 0.010449990403070975 0 0 0
5312 1 3100.0 4e-05 0.010403312647946182 0.001784702095238875 0.002428593932898544 0 0 0
5313 1 3100.0 9.115319038460955e-05 0.010614099076096761 0.005910259855435011 0.006946825919818513 0 0 0
5314 1 3100.0 0.00011816133000420628 0.007861629337865663 0.012070209491494758 0.008682412426870349 0 0 0
5315 1 3100.0 8.947298079694296e-05 0.019026820488366097 0.00797535740378743 0.0015872980431323232 0 0 0
5316 1 3100.0 1.1808520143250627e-05 0.015447734411725214 0.004127151611745011 0.01937791996739601 0 0 0
5317 1 3100.0 5.880964003473789e-05 0.014042305528481229 0.010188539628943989 0.004065710164730835 0 0 0
5318 1 3100.0 0.00016000966977359945 0.00718998213280761 0.0072975660730002405 0.01509184327172923 0 0 0
5319 1 3100.0 9.049465346706264e-05 0.008487379080187783 0.010902306193979737 0.012501584596448461 0 0 0
5320 1 3100.0 1.0255844788049994e-05 2.629919810576046e-05 0.0100402133338988 0.011415339835627354 0 0 0
5321 1 3100.0 7.188865128222315e-05 0.015505316420773555 0.007122145304609654 0.008046479680644562 0 0 0
5322 1 3100.0 1.1815445604752129e-05 0.003376385107809814 0.017612431404103332 0.015518662249186074 0 0 0
5323 1 3100.0 7.019083374648754e-05 0.007052183085646488 0.012707275802022312 0.008882484755680353 0 0 0
5324 1 3100.0 2.297566816851171e-05 0.01274200866939163 0.0028975736050715667 0.009490277462116791 0 0 0
5325 1 3100.0 1.0740778141312459e-05 0.0028618889289714444 0.015491978470227753 0.009675959129644076 0 0 0
5326 1 3100.0 8.85429698327206e-05 0.010434067885883061 0.00756537926480959 0.00011034849391167554 0 0 0
5327 1 3100.0 0.00020252872573615162 0.010535822627765534 0.002320252286313222 0.018235503248513397 0 0 0
5328 1 3100.0 6.131518067695275e-05 0.017094622401987523 0.005597374714078414 0.003193591537828382 0 0 0
5329 1 3100.0 1.5150931628014426e-05 0.0037103331897737984 0.0010598544774575093 0.002934727750798812 0 0 0
5330 1 3100.0 8.954111849179992e-05 0.011576254897860721 0.01778769969625519 0.004356364028400445 0 0 0
5331 1 3100.0 0.00019098746629158235 0.017525904293892242 0.010607959682138575 0.014540487827681609 0 0 0
5332 1 3100.0 0.00021378670655351206 0.005530477746384133 0.009162773920317906 0.01785544418587886 0 0 0
5333 1 3100.0 0.00010063136302903976 0.0032114938289938377 0.01448321128513086 0.008664340572804765 0 0 0
5334 1 3100.0 4.036057410839467e-05 0.002727680865740654 0.01212606722300369 0.005656468024832382 0 0 0
5335 1 3100.0 0.00012094093860925319 0.014464778268845778 0.002793629791304156 0.013367890456659025 0 0 0
5336 1 3100.0 3e-05 0.002285239898977451 0.0036939936712034964 0.011416948843761333 0 0 0
5337 1 3100.0 5.2482361072980385e-06 0.00713466289300653 0.015988941452692636 0.017351378456133153 0 0 0
5338 1 3100.0 0.0001620278305030945 0.009152446144096474 0.016645040592396396 0.013837743423153932 0 0 0
5339 1 3100.0 8.842629970401022e-05 0.01932479242354934 0.0006084572506570538 0.01718831854374941 0 0 0
5340 1 3100.0 4.183618330120777e-05 0.005341650134945519 0.01890213435168361 0.007787158116761937 0 0 0
5341 1 3100.0 2.009054054061755e-05 0.008942186135868002 0.0030956944495794283 0.014679310257912507 0 0 0
5342 1 3100.0 0.00019796985327582143 0.013504309881538513 0.004114027793163059 0.0035275815161535094 0 0 0
5343 1 3100.0 0.00012971218163385973 0.0014985158578269804 0.003160166807026946 0.006850311200685955 0 0 0
5344 1 3100.0 1.928106717643561e-05 0.0035937881446313153 0.01174888094868883 0.00828826483353831 0 0 0
5345 1 3100.0 1.5582553355856824e-05 0.017209648546084137 0.013441467091261443 0.01423372412411991 0 0 0
5346 1 3100.0 1.3899526215773855e-05 0.01594054495436346 0.019539690973535195 0.01998168276586702 0 0 0
5347 1 3100.0 5.562650112126117e-05 0.013789207901814364 0.006983897497870047 0.01787497386594234 0 0 0
5348 1 3100.0 6.525308670011288e-05 0.01531133898218621 0.011768854498159741 0.018221235226575764 0 0 0
5349 1 3100.0 8.186072781613685e-06 0.0042054513268442815 0.015217918061545677 0.008759969499787053 0 0 0
5350 1 3100.0 6.362542712822456e-05 0.006195778201139818 0.010679757936080395 0.01579963493565631 0 0 0
5351 1 3100.0 8.689523437216393e-06 0.016518185530975685 0.012251981845255291 0.01949824086065604 0 0 0
5352 1 3100.0 8.322512503652024e-05 0.0034176447921798296 0.017506881707526904 0.008830931775456985 0 0 0
5353 1 3100.0 6.705595906826132e-05 0.0011297129374987045 0.006585507630064212 0.017991575349733165 0 0 0
5354 1 3100.0 0.00011002489631075981 0.005300004549519189 0.0015136632094672551 0.018590426446261677 0 0 0
5355 1 3100.0 6.270808886373994e-05 0.008213568543628563 0.0185313036359445 0.013448451603385848 0 0 0
5356 1 3100.0 5.0766709910506155e-05 0.002990952816721556 0.01124886395187165 0.012609395388011469 0 0 0
5357 1 3100.0 8.837941239155664e-05 0.0029569632105450284 0.011429733754844039 0.014419774420094372 0 0 0
5358 1 3100.0 7.299989598056189e-05 0.0006397397743948944 0.006772483817595594 0.0178078374996112 0 0 0
5359 1 3100.0 1.1684155051847987e-05 0.010574111077535116 0.000980384237994726 0.004987224524288075 0 0 0
5360 1 3100.0 4e-05 0.014162631836211907 0.00804357151151809 0.0017993123194850972 0 0 0
5361 1 3100.0 1.3569217509567383e-05 0.0020710015921954756 0.011132377098029875 0.0007837728641128437 0 0 0
5362 1 3100.0 4.9011285857023554e-05 0.006589454622593037 0.006809175818865132 0.017375010506941686 0 0 0
5363 1 3100.0 8.946757140882611e-05 0.018868081257318862 0.004453917509541708 0.008730358090285027 0 0 0
5364 1 3100.0 5.359861493692224e-06 0.017378356297755592 0.0009539563233625368 0.007769534186080828 0 0 0
5365 1 3100.0 1.3130819292917015e-05 0.0044423382852576635 0.00937701712916024 0.010238263271739663 0 0 0
5366 1 3100.0 4.053693563892968e-05 0.006149425887963834 0.004076549850046301 0.014278461084692625 0 0 0
5367 1 3100.0 0.00010665538727532482 0.0083605498788794 0.01042406349513445 0.0014473007585144803 0 0 0
5368 1 3100.0 1.4107998180232638e-05 0.009465321170375945 0.015459015868668565 0.005759140349935141 0 0 0
5369 1 3100.0 4.743927608201753e-05 0.008882642401516497 0.0188569985233751 0.011766297619383422 0 0 0
5370 1 3100.0 5.152581133475916e-06 0.008713883667450304 0.018654744517247097 0.01742784499967422 0 0 0
5371 1 3100.0 0.0001526908989127935 0.0090302928544434 0.019547277779653663 0.014392672520066516 0 0 0
5372 1 3100.0 8.985234795735718e-06 0.012141658458297852 0.014119435564526522 0.017557128219890365 0 0 0
5373 1 3100.0 0.00013512760126316943 0.01683944860528346 0.017100196599001378 0.018766093409808872 0 0 0
5374 1 3100.0 8.802886120780074e-05 0.0012803411088664807 0.013289537759833759 0.008165317787775286 0 0 0
5375 1 3100.0 9.910074515366137e-06 0.019457536151485204 0.019017538616816154 0.002814923966115728 0 0 0
5376 1 3100.0 3e-05 0.008020045010774907 0.0027430176051047336 0.002336315975379683 0 0 0
5377 1 3100.0 1.460955602288588e-05 9.757156373860375e-05 0.014974938206759764 0.019399465194353805 0 0 0
5378 1 3100.0 7.999492376678447e-05 0.00478438259471856 0.007543337711449262 0.01197500105944471 0 0 0
5379 1 3100.0 1.2165681674160149e-05 0.019370742490131564 0.01965685865052051 0.00479680166649185 0 0 0
5380 1 3100.0 8.974275438685204e-05 0.018984834850738826 0.013512816216612511 0.0026031866612516875 0 0 0
5381 1 3100.0 1.557403271054348e-05 0.007635709618166252 0.0033109562489600946 0.011002271353821058 0 0 0
5382 1 3100.0 5.92219980253304e-05 0.010535492938848874 0.016871141474525793 0.008855742067795084 0 0 0
5383 1 3100.0 1.481081535631753e-05 0.0026008352142895172 0.017840779981128825 0.009413593799502148 0 0 0
5384 1 3100.0 9.117898965477214e-05 0.017312853817722726 0.010015128107751682 0.0008334722669222854 0 0 0
5385 1 3100.0 0.00011852124696129253 0.018558249230100028 0.0019698116383162117 0.016724112588857896 0 0 0
5386 1 3100.0 7.115130561198653e-05 0.011286198717490873 0.0003354268186208661 0.009450049825965244 0 0 0
5387 1 3100.0 8.767263708899896e-05 0.0037326393853952043 0.014634238690673956 0.01179641989950987 0 0 0
5388 1 3100.0 0.00025139210216512366 0.009330636814246193 0.003785718848186231 0.01437434317625906 0 0 0
5389 1 3100.0 0.0001285642824749111 0.015914291035227835 0.012101448295714079 0.0027046282284176 0 0 0
5390 1 3100.0 4.0127154390753034e-05 0.01694998173585057 0.01350830769828718 0.01017956573302591 0 0 0
5391 1 3100.0 1.005743608697474e-05 0.005998432624672577 0.002715649816146215 0.019965244352173627 0 0 0
5392 1 3100.0 8.114174082747853e-05 0.007407795010892745 0.005470171746069158 0.01764746030971291 0 0 0
5393 1 3100.0 1.247549130726552e-05 0.00503222761431436 0.0005494707370343297 0.012561106661667603 0 0 0
5394 1 3100.0 0.00014261206291375293 0.01527382641818573 0.018720544386010108 0.001151597607161458 0 0 0
5395 1 3100.0 1.5777345415046234e-05 0.012595103711233933 0.014140969436340106 0.002469545090723755 0 0 0
5396 1 3100.0 8.840321396023421e-05 0.008674229009066997 0.0013617667054333503 0.017308764353095914 0 0 0
5397 1 3100.0 1.1738110920725348e-05 0.016116657988266163 0.019248277048168935 0.0051253669434119485 0 0 0
5398 1 3100.0 9.893262951668647e-06 0.016967363231912357 0.0067667783609822755 0.00243708711940915 0 0 0
5399 1 3100.0 8.51538840049773e-06 0.00459858240851832 0.008807581199752421 0.018800533465495522 0 0 0
5400 1 3100.0 4.199786940367705e-06 0.002533213171510009 0.005789842294594252 0.008144741250552479 0 0 0
5401 1 3100.0 7.834954940805652e-06 0.003794274230348905 0.00791480180936898 0.012018832533336854 0 0 0
5402 1 3100.0 9.628392408099473e-05 0.0025222523599689084 0.0159447663584201 0.0089180979035271 0 0 0
5403 1 3100.0 0.00015380042533515154 0.009125527470342898 0.01630653072281825 0.019372962442668406 0 0 0
5404 1 3100.0 4.86221301678047e-05 0.010311393912951753 0.002123889816460816 0.01674193255817625 0 0 0
5405 1 3100.0 3.1467273278564185e-06 0.00320986662403558 0.0006622992044903747 0.013031452805378515 0 0 0
5406 1 3100.0 0.00014512327894564416 0.01944209758209117 0.01862017780197544 0.008182674998333271 0 0 0
5407 1 3100.0 0.00011420652924671985 0.003641406707506484 0.008348821606436647 0.019632952738678697 0 0 0
5408 1 3100.0 9.701009494277374e-06 0.0044741433794003435 0.009422580267648398 0.00024439798152606977 0 0 0
5409 1 3100.0 7.685046012337394e-05 0.0004350549015189962 0.004027108133743507 0.01490800415693692 0 0 0
5410 1 3100.0 1.4754222921315894e-05 0.008953027757760872 0.010612970599020126 0.015609938032535966 0 0 0
5411 1 3100.0 4.307788646331362e-05 0.002855664154470161 0.0014297011756795135 0.00468635588637447 0 0 0
5412 1 3100.0 4e-05 0.011348910001148751 0.0016296761140786769 0.016745212444738523 0 0 0
5413 1 3100.0 7.14138580471129e-05 0.019607086687198433 0.01288278303768589 0.010281372365644765 0 0 0
5414 1 3100.0 0.00012845457044203913 0.012918196271062249 0.01897880030137022 0.009941174750198931 0 0 0
5415 1 3100.0 5.423771632958102e-05 0.0026979220196155893 0.0028865957468990587 0.008217615983461537 0 0 0
5416 1 3100.0 0.00010736705254357999 0.004510325064419065 0.016582801228948205 0.007851372440775871 0 0 0
5417 1 3100.0 6.569422800857735e-05 0.00699967631685166 0.008485583249290307 0.012974656918539653 0 0 0
5418 1 3100.0 3.2512490811031004e-06 0.009675072481978714 0.0051864962539103785 0.008950215156153091 0 0 0
5419 1 3100.0 1.9906544091578912e-05 0.010517656534325907 0.008924407940993827 0.012952982623466834 0 0 0
5420 1 3100.0 0.00016064711627308904 0.0034344866286374295 0.011748942343338023 0.0011917500825847204 0 0 0
5421 1 3100.0 0.00017358625545678776 0.005154375749792371 0.017843378568813954 0.004338189003018486 0 0 0
5422 1 3100.0 0.00017790877049639938 0.01818882650492368 0.010460917663795883 0.018483336245315382 0 0 0
5423 1 3100.0 1.3597653488613388e-05 0.014943216217425033 0.002096837109982905 0.00401333771536822 0 0 0
5424 1 3100.0 0.0001613270215469001 0.01473400705760352 0.004403290737248459 0.006333502132254947 0 0 0
5425 1 3100.0 1.3095529031227653e-05 0.01938104895773392 0.018520854071035778 0.012527146020510246 0 0 0
5426 1 3100.0 8.368380025325859e-05 0.009004757375630142 0.019327973637025403 0.012362150511672625 0 0 0
5427 1 3100.0 5.56667294176755e-05 0.0059071872592489204 0.013030970974601243 0.00641702318726734 0 0 0
5428 1 3100.0 0.00010057548901926812 0.01752334300826773 0.006481305184054841 0.0023305763905039946 0 0 0
5429 1 3100.0 2.6063741603775847e-05 0.00945524601726872 0.0030278534359675802 0.010103748963951163 0 0 0
5430 1 3100.0 6.928704489248845e-05 0.01592558732910926 0.016163607051159032 0.0047339814047845635 0 0 0
5431 1 3100.0 0.00015464546702691385 0.002240636448195487 0.0008951156932812516 0.00653524835292975 0 0 0
5432 1 3100.0 9.629955050856372e-05 0.0007671544721443362 0.005196682891655193 0.012397506347825953 0 0 0
5433 1 3100.0 0.0001362663818852073 0.0013670232280634154 0.01843486115104792 0.014832325714600358 0 0 0
5434 1 3100.0 7.159620809288928e-05 0.005064074467534444 0.0044927996552607714 0.008193684545821298 0 0 0
5435 1 3100.0 1.3112404622561533e-05 0.009959015842290867 0.016201059297322257 0.015647043779186534 0 0 0
5436 1 3100.0 0.0002015245807056767 0.008889555707184341 0.0044777256360563665 0.0009118444912622917 0 0 0
5437 1 3100.0 1.1449693431154797e-05 0.0018213164657766246 2.4894034075863068e-05 0.01884581910050787 0 0 0
5438 1 3100.0 0.00012432529234688026 0.011753730899019056 0.0004270287229530876 0.019481382286615907 0 0 0
5439 1 3100.0 0.00018612915690871198 0.0022177424074169916 0.0020629623935375 0.012232926105093078 0 0 0
5440 1 3100.0 1.1648104911104847e-05 0.019625122675375233 0.007487233235627417 0.002806085550556245 0 0 0
5441 1 3100.0 0.00015351033108273297 0.011221169491082759 0.0074833816319072035 0.013670614757640974 0 0 0
5442 1 3100.0 3e-05 0.014553075694331825 0.01652890857569162 0.013152300704991607 0 0 0
5443 1 3100.0 6.152833625961909e-05 0.0012009031153182056 0.01672012421059587 0.008673890415637748 0 0 0
5444 1 3100.0 2.363985777921693e-05 0.0011995999214314368 0.00518514409396058 0.009420244198923155 0 0 0
5445 1 3100.0 0.00010248360020778567 0.010558407152203698 0.007186087048676419 0.018420839567425993 0 0 0
5446 1 3100.0 7.961246538325058e-05 0.0032574049663037495 0.015804383854304896 0.007473687688484287 0 0 0
5447 1 3100.0 1.0062293299282625e-05 0.0038021704922474296 0.016438496466441407 0.013864613287544859 0 0 0
5448 1 3100.0 4e-05 0.010478968856321068 0.019152081131781427 0.011097398361624149 0 0 0
5449 1 3100.0 1.7598305441248943e-05 0.009796533128666686 0.01647504252343521 0.0014825512864830787 0 0 0
5450 1 3100.0 4.925016615781295e-05 0.011396455986899985 0.013840838883388681 0.008263933800180246 0 0 0
5451 1 3100.0 1.4901635786864403e-05 0.0013642261128775238 0.004708128725512665 0.005536701427050632 0 0 0
5452 1 3100.0 0.00012656616221404208 0.015717695559694007 0.00749236520028079 0.013545094591613597 0 0 0
5453 1 3100.0 6.1765890689719695e-06 0.005561137082776265 0.003555973044623413 0.015928075252901113 0 0 0
5454 1 3100.0 0.00012762223026614375 0.014985334226176657 0.01064082884348437 0.005882253539927645 0 0 0
5455 1 3100.0 4.367978861774219e-05 0.00228068748084882 0.008690326376128038 0.0070751003749303576 0 0 0
5456 1 3100.0 3e-05 0.0044169308091229174 0.01446629742313401 0.0011480417112295716 0 0 0
5457 1 3100.0 0.0001263704221373656 0.008860038165499191 0.008708929207850786 0.002132798973154526 0 0 0
5458 1 3100.0 1.5318203775800072e-05 0.0055642460643896986 0.0157289057708411 0.01475713851344364 0 0 0
5459 1 3100.0 0.00011244661976007335 0.01509649470397878 0.018271564986628762 0.00269319635881173 0 0 0
5460 1 3100.0 9.660890191341416e-05 0.017891480318330592 0.012363583858228586 0.007267088080188522 0 0 0
5461 1 3100.0 7.961157837556471e-05 0.0014814879953230196 0.004573635522403272 8.735198520282805e-05 0 0 0
5462 1 3100.0 6.901509471444438e-05 0.005368158865323844 0.01380012891644165 0.011099453505212183 0 0 0
5463 1 3100.0 2.8002112104663088e-05 0.019127378233489922 0.017650346080995485 0.004308288569723238 0 0 0
5464 1 3100.0 1.9497944270427417e-05 0.008392567840285895 0.0014022346964768352 0.016863950357213022 0 0 0
5465 1 3100.0 6.734519260692155e-05 0.003456113926010774 0.0039756124090010725 0.012953895256755079 0 0 0
5466 1 3100.0 6.09399667077928e-05 0.016163224761383193 0.005848211213535912 0.013427218085226107 0 0 0
5467 1 3100.0 0.00014284588562222096 0.01052989721621119 0.011256948696209971 0.010365202210981788 0 0 0
5468 1 3100.0 8.373431049675328e-05 0.01787042669760389 0.002739219545832082 0.016855242936884215 0 0 0
5469 1 3100.0 1.2610494615218342e-05 0.0032389993466713325 0.016647785659675077 0.017999625711129737 0 0 0
5470 1 3100.0 0.00012262969820573208 0.01923049723884185 0.00820101509537851 0.010918860460181982 0 0 0
5471 1 3100.0 6.067922362203526e-06 0.019501833277907884 0.005692645165980479 0.01576327593454832 0 0 0
5472 1 3100.0 0.00013844491398860715 0.0009446025998618118 0.011821849872989478 0.013263063345082649 0 0 0
5473 1 3100.0 0.0001681269924780474 0.0017765675658146139 0.00294714496556348 0.0012141729970836746 0 0 0
5474 1 3100.0 8.919317842675678e-05 0.015287214323277258 0.009151398339189891 0.016700609215784725 0 0 0
5475 1 3100.0 7.149063348861284e-05 0.008316264195809392 0.008646573247583838 0.011570906914183167 0 0 0
5476 1 3100.0 5.2015685837991334e-05 0.005029733330482441 0.0049300291748133815 0.011093177384644572 0 0 0
5477 1 3100.0 9.236827505692971e-05 0.0015599130317108913 0.011434513137649004 0.004955607980556975 0 0 0
5478 1 3100.0 8.652767007989448e-05 0.00854138749058754 0.00610260813481592 0.0061418698745684674 0 0 0
5479 1 3100.0 6.858027762021696e-06 0.014633611556835778 0.009918328913611984 0.015469262612047296 0 0 0
5480 1 3100.0 8.196106621990746e-05 0.01825362721997715 0.01191916637058035 0.013376340956949425 0 0 0
5481 1 3100.0 0.0001381405739853341 0.011630830192235285 0.009853719026010737 0.014846689190366908 0 0 0
5482 1 3100.0 1.4736127781804322e-05 0.00844386612177987 0.014317405300973259 0.006803269747939084 0 0 0
5483 1 3100.0 4.1452466913379666e-05 0.016835945461161326 0.004351397132051605 0.0024685446950496424 0 0 0
5484 1 3100.0 0.0002737118029855562 0.010999516672562482 0.005514446805616628 0.012365211645482455 0 0 0
5485 1 3100.0 1.1646620429380596e-05 0.014372247206526193 0.009704010441656048 0.014716908099002106 0 0 0
5486 1 3100.0 1.1001090152444865e-05 0.017517703912798912 0.0010805272221142365 0.0032569670949734704 0 0 0
5487 1 3100.0 1.3769256994441835e-05 0.012578720900093782 0.013080011660062727 0.013226700586208744 0 0 0
5488 1 3100.0 1.8073958220049987e-05 0.01041617071361248 0.0111673441714178 0.0003743294667665841 0 0 0
5489 1 3100.0 7.696595068902962e-05 0.0004988715449882009 0.003491543335430544 0.008706794391884667 0 0 0
5490 1 3100.0 6.166842184966716e-06 0.014732866099021424 0.0027662322974597335 0.00472837840909626 0 0 0
5491 1 3100.0 1.7553444390022962e-05 0.008531649810714205 0.003379171199611627 0.005947749305741153 0 0 0
5492 1 3100.0 7.520536786934581e-05 0.004017567721164145 0.0010297563278268691 0.0047515076827440396 0 0 0
5493 1 3100.0 9.89038180679499e-06 0.01352231585150768 0.01400938783217827 0.01798299196872017 0 0 0
5494 1 3100.0 9.28231835386835e-06 0.0014856629556037533 0.00055684553104472 0.0097867901024987 0 0 0
5495 1 3100.0 5.186144754466868e-05 0.013824358094335555 0.008226939953030374 0.0021867021938341254 0 0 0
5496 1 3100.0 0.00011914377314444077 0.01918854423320522 0.015896474319455137 0.008416836424516733 0 0 0
5497 1 3100.0 0.0001057582360938299 0.009030064522737871 0.009013630098606102 0.014947078825035532 0 0 0
5498 1 3100.0 7.064616834981655e-05 0.008324653523730002 0.0006146588714012231 0.012061188248269935 0 0 0
5499 1 3100.0 6.326115359801245e-05 0.014929521238084158 0.014336128880837188 0.014850197284345003 0 0 0
5500 1 3100.0 2.6372088258021223e-05 0.006639658118857114 0.018104893580682055 0.011898817721669936 0 0 0
5501 1 3100.0 7.543991899961895e-05 0.007981001956130144 0.0023672664762894174 0.005166250767395538 0 0 0
5502 1 3100.0 5.948347309472906e-06 0.019905424021923128 0.010658642902743227 0.015182733619081039 0 0 0
5503 1 3100.0 8.828306995822073e-05 0.017944907355797932 0.0027496056640317263 0.0112937526262544 0 0 0
5504 1 3100.0 4e-05 0.0027671962090032396 0.005577590957032761 0.007495811089581378 0 0 0
5505 1 3100.0 1.599834075055645e-05 0.008155829890531754 0.013899671649985125 0.01651115787942861 0 0 0
5506 1 3100.0 7.155191039405965e-05 0.013047701588881182 0.013121561056307608 0.0011366909237136519 0 0 0
5507 1 3100.0 0.00014063992424429467 0.011261219270484062 0.014370133432669087 0.018269196473417338 0 0 0
5508 1 3100.0 5.3988125982213694e-05 0.019062035772668844 0.006166191470100409 0.0028958429370227823 0 0 0
5509 1 3100.0 0.0001450890127269645 0.0021830888138178496 0.0019803275494162447 0.005227318110939454 0 0 0
5510 1 3100.0 5.8560304956780834e-06 0.008396339609505187 0.0014155499028815062 0.005764352498207917 0 0 0
5511 1 3100.0 1.1496481067108944e-05 0.0063113611947224835 0.010944035826755467 0.009324308798385418 0 0 0
5512 1 3100.0 0.00017806913847436166 0.013825109896992531 0.004900796667238452 0.009768205424312932 0 0 0
5513 1 3100.0 1.2730751591139818e-05 0.01663103203619324 0.015444890763063556 0.01289588628448651 0 0 0
5514 1 3100.0 0.00011616717360264754 0.01843685581981426 0.003492629357719365 0.015532998891496147 0 0 0
5515 1 3100.0 6.169251690118339e-05 0.003468031153382068 0.016748583679759017 0.012816945523800078 0 0 0
5516 1 3100.0 4.373237251529126e-05 0.003559953561527686 0.006813348057454846 0.004794359538731481 0 0 0
5517 1 3100.0 0.00016192146027030948 0.0004039077602669592 0.016474942901102903 0.015204204015473004 0 0 0
5518 1 3100.0 0.00010016426164801479 0.0073768726566324945 0.006233883448742907 0.016430693305369847 0 0 0
5519 1 3100.0 0.00020076415628931944 0.009662801658120798 0.01901079261211766 0.01908460575444564 0 0 0
5520 1 3100.0 0.00014608532070146748 0.009654244867427508 0.019617667156468975 0.0029998589350137324 0 0 0
5521 1 3100.0 9.604107596514363e-06 0.00022561110281869723 0.01987600117090355 0.01875583371495023 0 0 0
5522 1 3100.0 0.00025131935991695275 0.012804253768089786 0.0193925214086422 0.019259244128085187 0 0 0
5523 1 3100.0 1.6896010266958916e-05 0.017142474860907492 0.01639628606497929 0.0025550583395875966 0 0 0
5524 1 3100.0 1.1930767147556352e-05 0.0012387536192909202 0.010570692522471902 0.01518351525988872 0 0 0
5525 1 3100.0 2.8757962845260203e-05 0.003956103584529052 0.012438639674427536 0.0014005191059402572 0 0 0
5526 1 3100.0 3e-05 0.016575907731455872 0.010426012254073982 0.013351498948250422 0 0 0
5527 1 3100.0 4.483155555130045e-05 0.0072805743473563595 0.0010379188465734319 0.0004476001035612227 0 0 0
5528 1 3100.0 7.699868974321698e-05 0.002458808920596727 0.013272952223874904 0.0009480518518093024 0 0 0
5529 1 3100.0 5.740948550949736e-05 0.01032442374406049 0.0062937360311669235 0.010055461016890706 0 0 0
5530 1 3100.0 1.2254408414252565e-05 0.011197378037871927 0.016990865876555683 0.012765856217791536 0 0 0
5531 1 3100.0 0.00012771606705796047 0.013712711087042527 0.0016261707772435247 0.007381793274141454 0 0 0
5532 1 3100.0 0.00015991797483448642 0.003981660137361028 0.009952598138678754 0.01429626521173321 0 0 0
5533 1 3100.0 0.00017627557170731714 0.003102074753157747 0.0047220954733439855 0.011596331806472335 0 0 0
5534 1 3100.0 9.204303630947395e-05 0.01756422595225611 0.00721305700163336 0.01961051061362459 0 0 0
5535 1 3100.0 0.0001370860398300324 0.002059175447737458 0.01551839254556993 0.01049725897536465 0 0 0
5536 1 3100.0 6.584607877475182e-05 0.0020653475781488087 0.019370292654322056 0.0014258335375690518 0 0 0
5537 1 3100.0 0.0001292876806357165 0.0009669752457850413 0.010561943184335025 0.010078229025909173 0 0 0
5538 1 3100.0 9.578843845274346e-05 0.016734282732266917 0.006989706387076371 0.012512505955094982 0 0 0
5539 1 3100.0 5.3293373706322485e-05 0.010211492388976007 0.015335364696476653 0.019314058444264263 0 0 0
5540 1 3100.0 4.944578911483888e-05 0.00811952617294881 0.009861988571522184 0.012240360361638766 0 0 0
5541 1 3100.0 6.631802545471536e-06 0.018586670259814746 0.017954246527743346 0.005648201542920358 0 0 0
5542 1 3100.0 0.00010038278858827754 0.012995982186693941 0.007296631400115458 0.009250905900428218 0 0 0
5543 1 3100.0 0.00012487037565824568 0.001950348732958296 0.006348729609882938 0.01455576632019523 0 0 0
5544 1 3100.0 6.8504630018144305e-06 0.004945476775020509 0.0006157422507133046 0.01977724526193085 0 0 0
5545 1 3100.0 0.00011096036002251886 0.008681533646867565 0.0007918747979760789 0.004836734643712133 0 0 0
5546 1 3100.0 9.552713714187835e-05 0.004316525326873449 0.001281625378157603 0.0063177515064888985 0 0 0
5547 1 3100.0 4.7914078409420655e-05 0.016923806979843477 0.0021673664406695703 0.00436596522006656 0 0 0
5548 1 3100.0 7.557815793867062e-06 0.00612879994542642 0.0013619221121248866 0.017707609245704508 0 0 0
5549 1 3100.0 8.060343933038605e-06 0.014794455849944798 0.01658580299993966 0.014401498012282495 0 0 0
5550 1 3100.0 1.0463412757973442e-05 0.008495924256344973 0.008261092828178725 0.009197522146046199 0 0 0
5551 1 3100.0 2.6598746533858682e-05 0.010496671790436 0.006144984129277227 0.01444167693919471 0 0 0
5552 1 3100.0 3e-05 0.01617726915257747 0.018858602699577804 0.003734275113828974 0 0 0
5553 1 3100.0 0.00011508201097448955 0.005628978628393148 0.011558096253112524 0.0025406364070567965 0 0 0
5554 1 3100.0 1.1051534842428783e-05 0.013187611782770083 0.011344989141299649 0.0009684444944669106 0 0 0
5555 1 3100.0 8.278132938130774e-06 0.001616148530499377 0.015179906202740514 0.012727984526488434 0 0 0
5556 1 3100.0 4.71389256417299e-05 0.0013234811945499908 0.018221716416126164 0.012650349721381075 0 0 0
5557 1 3100.0 7.613494500145556e-05 0.007404393340086188 0.015518713742661863 0.013090185209485447 0 0 0
5558 1 3100.0 8.367773400413969e-05 0.006363682134454577 0.01772516692507693 0.017387704718175162 0 0 0
5559 1 3100.0 0.00013625934357088692 0.01738742481101096 0.007593472360054847 0.00480057506654911 0 0 0
5560 1 3100.0 5.2134442749014594e-05 0.013154448319638986 0.011278345387037312 0.010093832635820768 0 0 0
5561 1 3100.0 1.1992941786661543e-05 0.016644600545097504 0.0018027710821033709 0.012953394960675654 0 0 0
5562 1 3100.0 8.012937130857099e-05 0.01597653712862588 0.0008862183806345627 0.01618587695707915 0 0 0
5563 1 3100.0 0.00010411356168733511 0.017878260971271497 0.004368631978245895 0.01803411369644007 0 0 0
5564 1 3100.0 5.963974109588777e-06 0.0030101707534419485 0.01554954415347399 0.009881863771505467 0 0 0
5565 1 3100.0 1.2002733501770998e-05 0.017605353238620478 0.005354768125857044 0.016405856288627247 0 0 0
5566 1 3100.0 9.225727633535956e-05 0.005864108798910589 0.0010378445467190322 0.01615223945198047 0 0 0
5567 1 3100.0 6.570614536076071e-05 0.008875697681328036 0.0028201344373137375 0.0020398125117716353 0 0 0
5568 1 3100.0 5.164901222101177e-05 0.0055761721294790775 0.010553923115919236 0.00934106961485889 0 0 0
5569 1 3100.0 6.772380519868391e-05 0.006675061139624345 0.01580313268956007 0.013681242336333768 0 0 0
5570 1 3100.0 1.3290218726784245e-05 0.013538514593574429 0.018586457838321798 0.009517925801311928 0 0 0
5571 1 3100.0 0.00012581200724970642 0.016127915969525532 0.003521625361952582 0.0011556556997454834 0 0 0
5572 1 3100.0 6.102374985773524e-06 0.0033101068056879766 0.006219835900026886 0.012151122429204787 0 0 0
5573 1 3100.0 2.921324192661273e-05 0.01425212452447562 0.0013022486686601992 0.0012113501311018292 0 0 0
5574 1 3100.0 5.509144534580661e-05 0.008949988698649347 0.009384663672155734 0.017851200290427673 0 0 0
5575 1 3100.0 9.825785150996478e-05 0.018143240087335206 0.015293316551084202 0.012135829319817519 0 0 0
5576 1 3100.0 9.52701900949738e-05 0.005244567046121328 0.006261570946171224 0.019365615803612346 0 0 0
5577 1 3100.0 1.4342221568257623e-05 0.002775699035043485 0.014048741539848435 0.0037358454036640963 0 0 0
5578 1 3100.0 1.4055200895877738e-05 0.001848535278419749 0.006502737846907809 0.01575155942211393 0 0 0
5579 1 3100.0 9.133205431368982e-06 0.00953480740787831 0.015382165102554654 0.012180907932081892 0 0 0
5580 1 3100.0 0.0001718169498347944 0.005622082013449561 0.017803335110794138 0.0058400108793768305 0 0 0
5581 1 3100.0 3.9447941747714905e-06 0.017352618215926416 0.004789976348607939 0.008667530698685347 0 0 0
5582 1 3100.0 0.00014533787252602397 0.003971916615558684 0.01014998847800284 0.006623345303672355 0 0 0
5583 1 3100.0 9.655155098843339e-05 0.012107641447552898 0.010298335211007792 0.016386339491694917 0 0 0
5584 1 3100.0 7.53172797015525e-05 0.002504118347742407 0.004864082915985501 0.019128817891931313 0 0 0
5585 1 3100.0 0.00016393168579484265 0.009404732284522734 0.012781440987924633 0.007725929956392832 0 0 0
5586 1 3100.0 0.00022435109356171406 0.0033096998966797853 0.016783851379645304 0.007597443769004755 0 0 0
5587 1 3100.0 7.211441870363443e-05 0.013947794630909458 0.00521657653711117 0.0184735991571794 0 0 0
5588 1 3100.0 1.0041095624306316e-05 0.019264864276187937 0.004221496093930931 0.00596471550057468 0 0 0
5589 1 3100.0 0.00015285502804258664 0.018947542653412884 0.003289634782173176 0.01689545483595145 0 0 0
5590 1 3100.0 8.162688324805771e-05 0.01820484128035067 0.019013848563659046 0.0026593142798336648 0 0 0
5591 1 3100.0 9.493781968556349e-05 0.012797941788964418 0.001693570830045357 0.013193824206402149 0 0 0
5592 1 3100.0 8.773782634684147e-06 0.0011256962754702326 0.0017910630912376432 0.00514568375199208 0 0 0
5593 1 3100.0 0.00017444895201610054 0.00741363427291773 0.006289023283464535 0.015978688242560764 0 0 0
5594 1 3100.0 6.9439400022655835e-06 0.006831010418310195 0.014109070645145706 0.01464300716523922 0 0 0
5595 1 3100.0 5.896319929480528e-05 0.005243199079799732 0.001528407762973439 0.004243735332389117 0 0 0
5596 1 3100.0 1.0552258236399226e-05 0.011459694079501152 0.002913079400547737 0.007567112337021198 0 0 0
5597 1 3100.0 7.038031736639511e-05 0.019015783469917162 0.014132446493391472 0.003157239320694659 0 0 0
5598 1 3100.0 2.668591465297026e-06 0.006463526963893708 0.014128502024361412 0.001190497793600996 0 0 0
5599 1 3100.0 6.85323921777013e-05 0.00035599631599860047 0.007373935936965472 0.01969516866827069 0 0 0
5600 1 3100.0 8.578748863716175e-05 0.014795863223459214 0.013796846730687675 0.0010886085467698675 0 0 0
5601 1 3100.0 3e-05 0.0050768314843263225 0.015224644020732502 0.005829816505023399 0 0 0
5602 1 3100.0 1.3265808694633722e-05 0.009753956908808628 0.01169713581198258 0.014568976372476028 0 0 0
5603 1 3100.0 1.4374259080199085e-05 0.011069471485586815 0.007492090568324773 0.014865912538634837 0 0 0
5604 1 3100.0 5.004321946487114e-05 0.00017415510505567925 0.004434617648693199 0.003960132620647191 0 0 0
5605 1 3100.0 1.3246340948811828e-05 0.015149920159338554 0.0004219207280460274 0.016455074204224793 0 0 0
5606 1 3100.0 4e-05 0.014486474756527352 0.016353134592645157 0.0006469645618340292 0 0 0
5607 1 3100.0 0.00014174800563955395 0.004708467634221043 0.008813141516793185 0.014793215771525096 0 0 0
5608 1 3100.0 0.000195668216478015 0.017445122766629177 0.007372619093853165 0.0035948369343060506 0 0 0
5609 1 3100.0 6.394843428144488e-05 0.01810702379859793 0.006912691622621519 0.013100775501139613 0 0 0
5610 1 3100.0 0.000147518194069533 0.007375249218954839 0.01860674697797209 0.013531204201268382 0 0 0
5611 1 3100.0 6.356425245746928e-05 0.0036038869040170285 0.016956649913039443 0.002170816369267081 0 0 0
5612 1 3100.0 0.00011812046521814146 0.013663881876739815 0.013590070451598846 0.010506869755263198 0 0 0
5613 1 3100.0 6.752682344572451e-05 0.002984575365962506 0.008719641528127112 0.005979574298429443 0 0 0
5614 1 3100.0 7.607674172265496e-05 0.016362714908214872 0.015175677899294599 0.008343200922673238 0 0 0
5615 1 3100.0 6.435684899964769e-05 0.005379816025403007 0.0111055989701636 0.0008386465892490904 0 0 0
5616 1 3100.0 0.00021736612083800907 0.00778993133281905 0.018145333029851964 0.0023572837549622858 0 0 0
5617 1 3100.0 0.00010929016560918916 0.01715991347195309 0.007533603016724964 0.018472359825993472 0 0 0
5618 1 3100.0 8.323175984590205e-05 0.006193281352924611 0.01691234122540272 0.009622689744579752 0 0 0
5619 1 3100.0 4.726773395329706e-05 0.018607280842651147 0.0004099993587001049 0.019582996691106525 0 0 0
5620 1 3100.0 0.00015388921868165565 0.0068530875333606776 0.0011328468255526033 0.014126523305841613 0 0 0
5621 1 3100.0 0.00014871815560960197 0.00693409706333321 0.009125398535287557 0.012863318559165823 0 0 0
5622 1 3100.0 1.0548838343910393e-05 0.004522130426124735 0.0004262349359948984 0.017492836051325983 0 0 0
5623 1 3100.0 8.125621781511053e-05 0.01913124890450245 0.005408295257882796 0.014370351330738808 0 0 0
5624 1 3100.0 0.00016564609184714312 0.007230405528969969 0.0036884446297857296 0.015296188280955327 0 0 0
5625 1 3100.0 8.102931376194369e-05 0.002398905885696553 0.0018745922266952203 0.01809572915839908 0 0 0
5626 1 3100.0 1.2989888032879982e-05 0.017353816693658836 0.002805334219859289 0.010196344954125941 0 0 0
5627 1 3100.0 8.17372491324947e-05 0.011518607878208117 0.006394943676036059 0.0024560282387154635 0 0 0
5628 1 3100.0 3e-05 0.015692853847141593 0.004365427805707053 0.01712940192312875 0 0 0
5629 1 3100.0 0.00020699607617601193 0.008584231458771501 0.015619595184886169 0.012096958188238036 0 0 0
5630 1 3100.0 6.2178355445557165e-06 0.008235251287768981 0.017335026913787917 0.017762156425345222 0 0 0
5631 1 3100.0 0.00018659055940779227 0.013208344252915153 0.006131439606133227 0.0006749587329963143 0 0 0
5632 1 3100.0 9.552993956538634e-05 0.019751211053520314 0.0009430769981733037 0.006930824925410246 0 0 0
5633 1 3100.0 7.459027851169374e-06 0.01054465154468526 0.0065258915421704915 0.01805365802668535 0 0 0
5634 1 3100.0 0.00015153352198413262 0.01818983677334231 0.006968592431111051 0.002403505058506482 0 0 0
5635 1 3100.0 1.216052009847286e-05 0.012277672380851687 0.00021662980696174084 0.014793183506949253 0 0 0
5636 2 7870.0 0.0003 0.008860441225988959 0.005466695653606689 0.011387647434115362 0 0 0
5637 1 3100.0 0.0001534553071638462 0.012235594058345562 0.014468811258365674 0.010000132149116417 0 0 0
5638 1 3100.0 8.997909217240175e-05 0.009999911988477822 0.013786074746177723 0.0049626173296408805 0 0 0
5639 2 7870.0 0.0003 0.009767986573657633 0.004086233081214045 0.011731467007694316 0 0 0
5640 1 3100.0 0.00024387714986255301 0.018566816863970072 0.019467758478549108 0.009592589597317586 0 0 0
5641 1 3100.0 1.0354193252366356e-05 0.01941304621717512 0.011700005867659926 0.004579392375937623 0 0 0
5642 1 3100.0 0.00012065026722073928 0.0013587283028496213 0.0025256066866583492 0.011646340642222731 0 0 0
5643 1 3100.0 1.1910447990947354e-05 0.01832742692079199 0.006448107174203491 0.008878639662135571 0 0 0
5644 1 3100.0 1.0482362901578832e-05 0.01571735624719151 0.001814896912999778 0.018080954189252974 0 0 0
5645 1 3100.0 0.00016575309990006165 0.0014787911913383576 0.010029990553383607 0.005908462837114392 0 0 0
5646 1 3100.0 1.4480203037753026e-05 0.018682933036457176 0.013491707570604198 0.015256350109229782 0 0 0
5647 1 3100.0 1.8431252190578916e-05 0.018853612211473424 0.007699854731029507 0.011206176882544975 0 0 0
5648 1 3100.0 0.00010421156722825384 0.00807687954318825 0.002590252776890595 0.018296373092259257 0 0 0
5649 1 3100.0 8.283553578578909e-06 0.005542339640672685 0.014055762592440669 0.007516876155741085 0 0 0
5650 1 3100.0 6.5928757034781125e-06 0.008753023091944083 0.010891521891033106 0.014276076733002654 0 0 0
5651 1 3100.0 0.0001708859345863436 0.014654567519436558 0.009576380834284757 0.011959418072099666 0 0 0
5652 1 3100.0 6.814075284464578e-05 0.014536286357311813 0.0025839759022957625 0.012996497111040454 0 0 0
5653 1 3100.0 3.6706898616914337e-06 0.011583154801760968 0.01358365419759871 0.0009147116339501832 0 0 0
5654 1 3100.0 7.472671651842028e-05 0.01716835787745073 0.009579391444254126 0.009333597665255171 0 0 0
5655 1 3100.0 2.5135061515538942e-05 0.007996138531319842 0.013511935578859517 0.0016412621184414887 0 0 0
5656 1 3100.0 1.0907743188608384e-05 0.004102472234617993 0.005414252154103755 0.0013949217555534294 0 0 0
5657 1 3100.0 9.241439248749496e-06 0.018497725007806186 0.018604018589054454 0.009229515664091357 0 0 0
5658 1 3100.0 6.149156249743039e-05 0.00897713844383456 0.0032187551598620535 0.01578287531499901 0 0 0
5659 1 3100.0 1.8325263750420607e-05 0.007276389527754217 0.017794917973761953 0.006548919090332872 0 0 0
5660 1 3100.0 0.00011830797345393481 0.0029316445527074564 0.0011891017187765308 0.018524782680815834 0 0 0
5661 1 3100.0 0.00017102031169343335 0.004189914276951323 0.014612496828705955 0.009135656745237933 0 0 0
5662 1 3100.0 0.00015501859018663406 0.016693297737879923 0.010196504838889866 0.010128119664471247 0 0 0
5663 1 3100.0 6.239513298674189e-06 0.013055609688047162 0.014289830398104475 0.011969610886256102 0 0 0
5664 1 3100.0 5.690139513929806e-05 0.015426256457348629 0.0007163911778612082 0.0019254842662757017 0 0 0
5665 1 3100.0 6.60694272355095e-05 0.011271459032416949 0.00843818999820672 0.002807576645980788 0 0 0
5666 1 3100.0 2.272543516542394e-05 0.005982335900375856 0.01919721327639014 0.008660137797643252 0 0 0
5667 1 3100.0 0.00011170161898237998 0.01450566350340626 0.010274604004415907 0.00948952996990451 0 0 0
5668 1 3100.0 2.2418369477882837e-05 0.002106087749795176 0.009868309641506317 0.0012127876819868074 0 0 0
5669 1 3100.0 5.3195769171270386e-05 0.006950766810144957 0.01463458533045246 0.012111071950925187 0 0 0
5670 1 3100.0 0.00013340460152555937 0.016691359896234128 0.010845483386898407 0.017519736888635805 0 0 0
5671 1 3100.0 5.333057927286e-06 0.006999158348611719 0.014573972043211546 0.017589904568608476 0 0 0
5672 1 3100.0 1.4292712337847482e-05 0.014360644987592642 0.01191569944533071 0.0029690281707116873 0 0 0
5673 1 3100.0 2.5965602933696066e-05 0.008463574609854318 0.00798849761267584 0.009233348889558705 0 0 0
5674 1 3100.0 1.0819186972575834e-05 0.0002745498130045212 0.019918528647122846 0.01571202943136141 0 0 0
5675 1 3100.0 8.472667806673038e-05 0.004768421953232461 0.011020519395496108 0.012592367750389497 0 0 0
5676 1 3100.0 8.117142085324785e-05 0.01551367850490645 0.005187580710345014 0.019279276450347802 0 0 0
5677 1 3100.0 0.00017972821107918634 0.009023152307578372 0.019785875156076067 0.010366765555676557 0 0 0
5678 1 3100.0 1.7627271742068296e-05 0.0004184468269328792 0.019528206869871206 0.007860560450807276 0 0 0
5679 1 3100.0 5.045366092668129e-06 0.018744366190447163 0.006470532190981884 0.009065746305562396 0 0 0
5680 1 3100.0 5.047561970808195e-05 0.017127694164060642 0.013229397092251753 0.009688134540583397 0 0 0
5681 1 3100.0 6.361155231129316e-05 0.00442054885991095 0.005206625695643911 0.01807393431794135 0 0 0
5682 1 3100.0 1.4760590590846524e-05 0.0009301004871585927 0.009637663456215778 0.01625753220223297 0 0 0
5683 1 3100.0 7.93638940447705e-05 0.0077258050975716926 0.013562665096904326 0.004827455592538998 0 0 0
5684 1 3100.0 7.701539898974781e-05 0.005697012324228642 0.019665237954070523 0.004285989089795738 0 0 0
5685 1 3100.0 4e-05 0.004034241642638836 0.01769063466164959 0.0004058202720794174 0 0 0
5686 1 3100.0 0.00017735610915528923 0.01331455970255644 0.0158891577513324 0.0018002111551534737 0 0 0
5687 1 3100.0 0.00016197398516805864 0.009438591196512672 0.011008346330702898 0.0015767627502795917 0 0 0
5688 1 3100.0 7.505280939079389e-05 0.003040039380120034 0.010936518674766969 0.019809912410179785 0 0 0
5689 1 3100.0 4e-05 0.019728409163509784 0.012318756397813456 0.017799917708375707 0 0 0
5690 1 3100.0 9.368084947402405e-06 0.0007102182000181511 0.004353410318395616 0.01925277962854136 0 0 0
5691 1 3100.0 0.00014451320089055382 0.004070748608060486 0.0073831067302881186 0.016092187277102765 0 0 0
5692 1 3100.0 1.0198953895118975e-05 0.0172133968820748 0.0008154473760249119 0.007046886587360028 0 0 0
5693 1 3100.0 9.37077133923708e-05 0.002201039766226097 0.012819166516448587 0.012274768869330087 0 0 0
5694 1 3100.0 6.057912010263922e-05 0.002970872805444566 0.015613677239791493 0.0031723828735939963 0 0 0
5695 1 3100.0 1.3775337820929404e-05 0.004930523349327187 0.004837906084356346 0.005407227678573535 0 0 0
5696 1 3100.0 0.00011701383577766048 0.013785309427651748 0.002355016087393236 0.0003813199737739371 0 0 0
5697 1 3100.0 4e-05 0.00447837540599183 0.00899025890211307 0.018060697714567704 0 0 0
5698 1 3100.0 9.730345360426208e-05 0.011478594418705327 0.00099864545392574 0.002968527370471103 0 0 0
5699 1 3100.0 1.4385332920306132e-05 0.0001246260399485886 0.012571975475081185 0.004061925177754675 0 0 0
5700 1 3100.0 0.00011124235157116175 0.013568067223852667 0.015898192223583497 0.0009511764982136562 0 0 0
5701 1 3100.0 6.37468766411991e-05 0.008622947149799717 0.011420705325750466 0.01277358616635612 0 0 0
5702 1 3100.0 0.00014056215719534382 0.006837336598839992 0.012660155704861405 0.010993972590630372 0 0 0
5703 1 3100.0 1.0670042189884776e-05 0.000699136621627802 0.00530400355337573 0.009938435041822914 0 0 0
5704 1 3100.0 9.25933922182539e-05 0.016627168710311033 0.0010795917525407684 0.019279685224121972 0 0 0
5705 1 3100.0 4e-05 0.017350809092888563 0.01671696767888112 0.01457939179166811 0 0 0
5706 1 3100.0 8.587926028591102e-05 0.016661308153366305 0.013241952536256717 0.017959120001467734 0 0 0
5707 1 3100.0 1.9496344813347398e-05 0.004562754438449099 0.00035475232716889653 0.010190614099180298 0 0 0
5708 1 3100.0 1.8549395414796912e-05 0.0009080456398007628 0.004789281885681622 0.0053262024181935375 0 0 0
5709 1 3100.0 9.424319416176512e-06 0.01814737384280442 0.0066886446126387476 0.01483063191482981 0 0 0
5710 1 3100.0 0.00018060646894020677 0.012124479835419028 0.0036693503743849085 0.007390475315521944 0 0 0
5711 1 3100.0 1.2053457365049408e-05 0.019263865914409525 0.00991779379617086 0.0010897298860188661 0 0 0
5712 1 3100.0 0.0001054843791551302 0.009167627752841344 0.0007129668383681687 0.013880056552690397 0 0 0
5713 1 3100.0 0.0001106341975276359 0.01781527284684609 0.003603672693571608 0.012448298464062198 0 0 0
5714 1 3100.0 1.9389991150082127e-05 0.006992587400514086 0.0015686322563161581 0.010810003867608496 0 0 0
5715 1 3100.0 4.81020726217722e-05 0.005543376162623608 0.0028926927824346597 0.00047671673600652436 0 0 0
5716 1 3100.0 3e-05 0.008731012248795734 0.01970642069448801 0.007719762863997342 0 0 0
5717 1 3100.0 1.2819298277108798e-05 0.007682537147316729 0.004886341381414517 0.012141977438011894 0 0 0
5718 1 3100.0 0.00010652372221909132 0.002741185359043223 0.011641288144522623 0.01858538142206327 0 0 0
5719 1 3100.0 9.156103585724793e-05 0.018974017925448127 0.010675605523194196 0.01112173826506598 0 0 0
5720 1 3100.0 8.558848969038483e-06 0.019243308905400276 0.01108416410491603 0.015544349277576072 0 0 0
5721 1 3100.0 2.9725007410686816e-06 0.01597859087207819 0.01876583821497648 0.006293982106676028 0 0 0
5722 1 3100.0 2.8453645462335836e-05 0.010139382338602988 0.005269525306010371 0.010271802723728261 0 0 0
5723 1 3100.0 8.414432472886134e-06 0.0024823982205192372 0.01570078196156381 0.004507353834849216 0 0 0
5724 1 3100.0 8.622529801458673e-05 0.01723054774245014 0.019629434854914925 0.003379017068945665 0 0 0
5725 1 3100.0 8.904645163338794e-05 0.0011585975193827414 0.005928039505689972 0.011329926429574703 0 0 0
5726 1 3100.0 4.582063211971385e-05 0.00336246211903039 0.004513680672124471 0.0015790322182216423 0 0 0
5727 1 3100.0 0.00010100495483976548 0.018596961401097394 0.007635164956614668 0.009103205397155766 0 0 0
5728 1 3100.0 8.299360571174344e-05 0.01399557868582417 0.003576376145448454 0.0010883353129815159 0 0 0
5729 1 3100.0 8.068814416708127e-05 0.014704976376189274 0.004228728349920204 0.010678618563058264 0 0 0
5730 1 3100.0 0.00013720845044800698 0.0022805216402983436 0.006980383727606146 0.001459175343530463 0 0 0
5731 1 3100.0 8.157191154864784e-05 0.017483993734523983 0.0029526401305862496 0.0014203577143785922 0 0 0
5732 1 3100.0 1.766742373891574e-05 0.01568889222009165 0.003151958928039485 0.005838750089191296 0 0 0
5733 1 3100.0 8.980025856350996e-05 0.019049203346094713 0.019404395666865075 0.01135636507984701 0 0 0
5734 1 3100.0 1.6208455619946354e-05 0.014248551371601987 0.010288988941193499 0.01935841058722466 0 0 0
5735 1 3100.0 2.216971405649131e-05 0.014183670307997153 0.001290284517060619 0.009162383948037606 0 0 0
5736 1 3100.0 4.767798550665647e-05 0.0036241363679136236 0.0181877573010596 0.013530013694330307 0 0 0
5737 1 3100.0 4.977597557050777e-05 0.0017670108216700526 0.01568654007165039 0.014742761317947316 0 0 0
5738 1 3100.0 1.3676938947872889e-05 0.014157204858689088 0.016527294255097923 0.007209110514567637 0 0 0
5739 1 3100.0 5.042074088241212e-05 0.006699247964092768 0.009078699975696174 0.017608902924616386 0 0 0
5740 1 3100.0 0.00017474171280504853 0.016864490332506223 0.015131711144285544 0.009526149918535813 0 0 0
5741 1 3100.0 0.00010255848713214982 0.0029737859076483064 0.006593594273854826 0.013790938075465395 0 0 0
5742 1 3100.0 3e-05 0.013435997756888267 0.019515642803987168 0.001973259288657093 0 0 0
5743 1 3100.0 7.502033725481241e-05 0.008430779221488731 0.0037385690253456906 0.019657394415728134 0 0 0
5744 1 3100.0 7.3137581206058e-05 0.010077216507108164 0.01683271490235875 0.005774952918169791 0 0 0
5745 1 3100.0 1.3796557456980887e-05 0.01756739751735007 0.0010959933287668343 0.004513589900304297 0 0 0
5746 1 3100.0 7.538829917342458e-06 0.01300367696987755 0.01916969773667893 0.012932910531923955 0 0 0
5747 1 3100.0 4.542082309118617e-05 0.00449260929029351 0.018858606732292886 0.0151796116418756 0 0 0
5748 1 3100.0 6.368257819187893e-05 0.01481070460319826 0.011305178985169077 0.009075824875432272 0 0 0
5749 1 3100.0 0.00010538883200350995 0.0019261209386187074 0.002663748440952657 0.01440461660209196 0 0 0
5750 1 3100.0 6.174410970304017e-05 0.009465702252795553 0.00249156626166899 0.011935853657342892 0 0 0
5751 1 3100.0 0.00010578165819297892 0.017488875345632107 0.011820504625184514 0.006382384872573695 0 0 0
5752 1 3100.0 0.00010122417963670353 0.011797638833371324 0.01589557832083291 0.004499076853050571 0 0 0
5753 1 3100.0 7.15177158586595e-05 0.013509915495753632 0.012362296697983784 0.0012520975404073434 0 0 0
5754 1 3100.0 0.0001771007208991943 0.009421762985338526 0.016202980975859673 0.005689057127701652 0 0 0
5755 1 3100.0 1.8347801123216243e-05 0.007136999206454273 0.005876922621970414 0.010120427390039866 0 0 0
5756 1 3100.0 5.003235064070005e-05 0.001239487664555545 0.01707325564700715 0.013369538132871884 0 0 0
5757 1 3100.0 0.00010139403090737544 0.0027640101547840106 0.011980968004625043 0.009909051418646479 0 0 0
5758 1 3100.0 0.00015080796617625503 0.00817369263795039 0.00023156398610155887 0.015091464511394308 0 0 0
5759 1 3100.0 0.0001074537468209415 0.00989830252988901 0.014750877149370996 0.0004168269498580786 0 0 0
5760 1 3100.0 7.127098617064142e-05 0.011031254110658636 0.005966829252351029 0.014534192272259988 0 0 0
5761 1 3100.0 0.00010396851892907457 0.008316144542401815 0.009956216121367045 0.011623942869823196 0 0 0
5762 1 3100.0 6.449808028348383e-06 0.01521145118963455 0.005067617420102242 0.003637128028627787 0 0 0
5763 1 3100.0 8.903960548891423e-06 0.006103187172628512 0.01680066433172551 0.001862146199687192 0 0 0
5764 1 3100.0 0.0001200501874216151 0.009184680738090364 0.008604318664960866 0.011316289522734176 0 0 0
5765 1 3100.0 1.4714268510120075e-05 0.017210295451610742 0.015506557993557204 0.018531324850461123 0 0 0
5766 1 3100.0 4e-05 0.004516050453985193 0.014706007220205132 0.002502955461312818 0 0 0
5767 1 3100.0 7.565679190922821e-05 0.0019433120097592494 0.01931980355154741 0.005345785097257748 0 0 0
5768 1 3100.0 1.9658535318254955e-05 0.009443335067972724 0.0014044183615981305 0.013876507950261026 0 0 0
5769 1 3100.0 5.9457947798805345e-06 0.010114935059199677 0.009366841638212251 0.0015996298814508053 0 0 0
5770 1 3100.0 7.19417419847231e-05 0.007335243314870087 0.017295273844423677 0.005331644141315279 0 0 0
5771 1 3100.0 3e-05 0.013514404616100038 0.012138993142083119 0.000864964402438181 0 0 0
5772 1 3100.0 0.0001550695335009929 0.011033942395029054 0.009116867332745613 0.000892048761839911 0 0 0
5773 1 3100.0 0.00018372586594185127 0.0029422762082714185 0.008192482924305368 0.016237496274866654 0 0 0
5774 1 3100.0 1.4043107041494689e-05 0.013278557330196023 0.001242092540189643 0.01492441977954042 0 0 0
5775 1 3100.0 5.26360958485942e-05 0.01145514358807162 0.01195487306384202 0.006293947519989985 0 0 0
5776 1 3100.0 5.952676467973211e-05 0.002168514953869028 0.005551343999220618 0.012512249410307298 0 0 0
5777 1 3100.0 1.1539616705662179e-05 0.006062141199378649 0.017733113427307774 0.01985019917730458 0 0 0
5778 1 3100.0 2.5685970554070196e-05 0.01863635323299357 0.011509680221112251 0.019617981662895037 0 0 0
5779 1 3100.0 7.054396396964896e-05 0.017707446112785283 0.0157301695418954 0.007467392041562536 0 0 0
5780 1 3100.0 2.124413742212538e-05 0.01738519621667664 0.011763748308262508 0.0156919124508146 0 0 0
5781 1 3100.0 7.266287301699414e-05 0.006759306035791493 0.018315320561135967 0.004578823736481243 0 0 0
5782 1 3100.0 2.1716756471223177e-05 0.019046880535229602 0.005581572925417689 0.00037425251722928885 0 0 0
5783 1 3100.0 0.00022880848559268425 0.0023421906113183654 0.018211523705645674 0.019228289305217427 0 0 0
5784 1 3100.0 6.0536975444875566e-05 0.0192661310428013 0.0009952834395523867 0.00867546068146144 0 0 0
5785 1 3100.0 4.6454437112056904e-05 0.0072788185798150695 0.011369885277643136 0.015105168967146042 0 0 0
5786 1 3100.0 4.9835332603887343e-05 0.009545389130113385 0.0042503818735611714 0.0069925679070879454 0 0 0
5787 1 3100.0 6.148153712779568e-05 0.010142753797836338 0.00279052220966579 0.014366734298346319 0 0 0
5788 1 3100.0 3e-05 0.015157602121832281 0.011035365543749042 0.013689217083017177 0 0 0
5789 1 3100.0 9.42246077692382e-06 0.009802011675848567 0.014215452393419838 0.0017152711790932337 0 0 0
5790 1 3100.0 4.625003181666188e-05 0.011286190252203952 0.011859702564354818 0.016704154245377963 0 0 0
5791 1 3100.0 7.710646975230736e-05 0.005994909340514466 0.01587390553619452 0.004625052902599283 0 0 0
5792 1 3100.0 1.2311101876604715e-05 0.009791218665810422 0.007605446964676779 0.016280270456040927 0 0 0
5793 1 3100.0 0.00013902318608364329 0.008369168064174563 0.016567003630391458 0.008669728521363478 0 0 0
5794 1 3100.0 1.2967100348514298e-05 0.001420615268173959 0.006008895210712783 0.009946281570789008 0 0 0
5795 1 3100.0 2.380928844586115e-05 0.004290499615448418 0.0004642437232333025 0.0019473661532779002 0 0 0
5796 1 3100.0 0.00014286507166557278 0.007688139911702438 0.01668912558826203 0.00038461176536044357 0 0 0
5797 1 3100.0 0.00015074256317343658 0.017947920925533295 0.01827317544290776 0.01531199896980723 0 0 0
5798 1 3100.0 0.00017238862017473133 0.004077966544136974 0.01123768669875953 0.0009566541313463385 0 0 0
5799 1 3100.0 9.517900727954171e-06 0.013690824144933557 0.0005657348170809412 0.01987051271621749 0 0 0
5800 1 3100.0 1.118788254150572e-05 0.01693910285954703 0.0043096732065908945 0.018576838241656075 0 0 0
5801 1 3100.0 1.0689638970057385e-05 0.017793862422780703 0.0033226990516659225 0.008773384521627315 0 0 0
5802 1 3100.0 8.132710267621201e-06 0.011422837979509317 0.002658749779046243 0.013850292167181996 0 0 0
5803 1 3100.0 6.650697284720557e-05 0.008938107450698634 0.01786919175794027 0.010467222068796809 0 0 0
5804 1 3100.0 0.00020686882401528423 0.007842039217158552 0.017622948373896066 0.016635676171894452 0 0 0
5805 1 3100.0 9.151766414273481e-05 0.01601759492183138 0.009725304651681125 0.013464367907401522 0 0 0
5806 1 3100.0 0.00017717909026904042 0.0023603092757167117 0.007205632233949585 0.015826224957741213 0 0 0
5807 1 3100.0 0.0001220120329995521 0.0189255675577464 0.008522264521199427 0.012014489748280054 0 0 0
5808 1 3100.0 0.0002589513553591994 0.01000438875200682 0.019061025337004465 0.004044453111691444 0 0 0
5809 1 3100.0 8.237643158881736e-05 0.0034682398551300793 0.0019868332520072886 0.017244329856417377 0 0 0
5810 1 3100.0 4e-05 0.0008443142409568111 0.013189587142331148 0.011554067825112002 0 0 0
5811 1 3100.0 0.0001582191605592543 0.013577667431394456 0.005114638801699158 0.019379936189848446 0 0 0
5812 1 3100.0 8.520927847563549e-05 0.01770923013957452 0.012492258085498507 0.006539227811407613 0 0 0
5813 1 3100.0 1.6082020720189697e-05 0.019778034989781562 0.015128016229310268 0.019782189150569954 0 0 0
5814 1 3100.0 9.913273606431968e-05 0.019318150046305316 0.010959148971529465 0.0016522582413545 0 0 0
5815 1 3100.0 8.217316573503851e-05 0.01253251836139582 0.015639857072563466 0.003494571459423917 0 0 0
5816 1 3100.0 5.797630777999173e-06 0.0017493667001851551 0.006340896941287177 0.014930606462430347 0 0 0
5817 1 3100.0 1.044419960170741e-05 0.015465286553314713 0.007149249048263704 0.008506195434217807 0 0 0
5818 1 3100.0 1.3389246893547717e-05 0.01469132589602368 0.01712991166590475 0.0157674828656546 0 0 0
5819 1 3100.0 0.00010531695468612991 0.010348791688124238 0.013226063531742145 0.015024032409996045 0 0 0
5820 1 3100.0 8.491098768042235e-05 0.014969035874702325 0.005270503807269479 0.005882427838756081 0 0 0
5821 1 3100.0 7.988325542568736e-05 0.005744864040314262 0.011361530063065351 0.004471398250101426 0 0 0
5822 1 3100.0 6.60507331109823e-05 0.013436841230287936 0.0004482282885190872 0.010224411613029644 0 0 0
5823 1 3100.0 8.433372294339053e-06 0.01367973696297673 0.013283659197434128 0.013126945826707617 0 0 0
5824 1 3100.0 5.166287531706149e-05 0.00020653053904562337 0.002845254311221585 0.009087569070000657 0 0 0
5825 1 3100.0 2.950625880871377e-05 0.006167332247717264 0.007588909454769499 0.00728278970016294 0 0 0
5826 1 3100.0 0.000186712940471496 0.0035664355234270337 0.010177458467343465 0.012220155309594508 0 0 0
5827 1 3100.0 0.00014727582785161022 0.012725147463800919 0.013554290989948918 0.019813954889602782 0 0 0
5828 1 3100.0 0.00011692887592769515 0.018183085556591573 0.019692893724672717 0.00406070394685401 0 0 0
5829 1 3100.0 0.0001477498382994601 0.014296084753852535 0.0031200829069971355 0.0032674645495478012 0 0 0
5830 1 3100.0 0.00021348491354646352 0.0152349532917125 0.006176612023415064 0.01401676944555037 0 0 0
5831 1 3100.0 2.811130794149568e-05 0.014711866369827162 0.015397943080322305 0.009662261556901778 0 0 0
5832 1 3100.0 6.386919690332933e-05 0.013104147605433153 0.007424372433522213 0.013832987310801036 0 0 0
5833 1 3100.0 0.0001399738878353492 0.0016060726664478427 0.007758170961767895 0.006156926457809237 0 0 0
5834 1 3100.0 0.00010197959240001834 0.0028462100876385462 0.008630301946808042 0.007170991010533902 0 0 0
5835 1 3100.0 0.00013539448418731294 0.01730678106076868 0.006844902317693476 0.005064309494317261 0 0 0
5836 1 3100.0 6.744941411852035e-06 0.002411700478032598 0.0015862726593984264 0.0058378734285951 0 0 0
5837 1 3100.0 0.00010444518617249344 0.015017884605422771 0.016727275131730054 0.015896584711527533 0 0 0
5838 1 3100.0 3.736610342128342e-06 0.009689945981284103 0.013402085988007368 0.011966931433116185 0 0 0
5839 1 3100.0 1.1791290620959157e-05 0.006551967110521316 0.008332223101580194 0.005131362388379966 0 0 0
5840 1 3100.0 0.0001250598564613447 0.018738260949395576 0.0062447204117706 0.009490362992485913 0 0 0
5841 1 3100.0 1.4232319228562091e-05 0.0037287642547306496 0.016775557461190194 0.01570188820285626 0 0 0
5842 1 3100.0 2.4164514234233575e-05 0.014110635397317852 0.014776028891102041 0.013397598755781835 0 0 0
5843 1 3100.0 8.725229945485918e-05 0.018143763403285836 0.005801037304955211 0.008400777349409227 0 0 0
5844 1 3100.0 9.918842812181376e-06 0.019830763486471642 0.018329976816883857 0.016268858858914093 0 0 0
5845 1 3100.0 7.599155524522247e-05 0.015806816141355054 0.00205517882100125 0.0008435488616150037 0 0 0
5846 1 3100.0 6.393950507102816e-06 0.00275916691761183 0.017709557163712673 0.014155753455480136 0 0 0
5847 1 3100.0 8.708084114047623e-05 0.009313630588451523 0.016913409651436256 0.017042297519767057 0 0 0
5848 1 3100.0 5.661697569624621e-05 0.0004507443937059296 0.0061062830594653195 0.011185847367778117 0 0 0
5849 1 3100.0 1.3109670932944086e-05 0.014741731355473651 0.008648763751509395 0.0029804247184310995 0 0 0
5850 1 3100.0 1.2040315151379363e-05 0.0020759966841351575 0.017030345846291157 0.015506508404013313 0 0 0
5851 1 3100.0 6.357819199792375e-06 0.019344130913902295 0.015624465015106505 0.0027810597352605436 0 0 0
5852 1 3100.0 0.00010528253248355622 0.014573931729231491 0.005684749268597253 0.012844792890125597 0 0 0
5853 1 3100.0 5.373413147522673e-06 0.00870770078749791 0.019980376164946016 0.019011816436071534 0 0 0
5854 1 3100.0 0.00010697914394041234 0.006861614272858623 0.005964373426603367 0.01596367983619318 0 0 0
5855 1 3100.0 1.2067371629677101e-05 0.016557683344150958 0.00613533600993665 0.001769289942232038 0 0 0
5856 1 3100.0 1.7467626569069632e-05 0.015249621502967001 0.012790855656192887 0.0025773759097087027 0 0 0
5857 1 3100.0 0.00010308140986913765 0.012318482062229335 0.007183507491194056 0.013875111291376844 0 0 0
5858 1 3100.0 5.88271414635398e-05 0.0034851104054632602 0.008105664066929466 0.019765658159168083 0 0 0
5859 1 3100.0 6.961803190869079e-05 0.0015105236602857616 0.009419273052014308 0.006774750789083045 0 0 0
5860 1 3100.0 8.118497716866238e-05 0.013791502670221528 0.005623540543948464 0.006756965154446806 0 0 0
5861 1 3100.0 5.596566621822564e-05 0.001967246188704159 0.018624512952440535 0.011226275508756616 0 0 0
5862 1 3100.0 1.7202134667498926e-05 0.0178432649015464 0.014343685182834728 0.009122736266547632 0 0 0
5863 1 3100.0 5.709033803767306e-05 0.015290128089559495 0.010064404859829927 0.010934045070809926 0 0 0
5864 1 3100.0 6.341735240946738e-05 0.0030990043032826154 0.011282622650089034 0.001008419799106133 0 0 0
5865 1 3100.0 9.992899918217763e-05 0.002053629445375588 0.012269056459433002 0.007452929136155675 0 0 0
5866 1 3100.0 1.5803443540022812e-05 0.018603145299765086 0.004344970815499207 0.016172176199965308 0 0 0
5867 1 3100.0 6.7974358190982075e-06 0.007229824817817754 0.0006321327168059872 0.011174503661946751 0 0 0
5868 1 3100.0 1.1236578167314604e-05 0.018443432842980164 0.0015881102165483966 0.014070374510187651 0 0 0
5869 1 3100.0 7.747757951066389e-06 0.006255993504790587 0.01556762846251694 0.005874104095117317 0 0 0
5870 1 3100.0 1.0067396057292348e-05 0.0018761418446427178 0.006437771061036142 0.01717515035979979 0 0 0
5871 1 3100.0 5.2649461568836026e-05 0.0034054717262952845 0.004727828337729012 0.018445419149115384 0 0 0
5872 1 3100.0 8.140125301436773e-05 0.010657973270879978 0.010361520395124571 0.0009925891153209727 0 0 0
5873 1 3100.0 3e-05 0.010164396175073087 0.012361891711835254 0.0028904278710604136 0 0 0
5874 1 3100.0 1.782141956978318e-05 0.006546152198501069 0.006309718946627261 0.00827793166846951 0 0 0
5875 1 3100.0 2.910701331144877e-05 0.0020676905563475874 0.011046145005206644 0.011963986654056869 0 0 0
5876 1 3100.0 2.545523190618595e-05 0.004529352660939421 0.003462541134605555 0.006486554511489529 0 0 0
5877 1 3100.0 7.20031969075088e-05 0.002070194534583132 0.010607067467658323 0.018337291844960683 0 0 0
5878 1 3100.0 0.0002144817528963501 0.002156314892308606 0.0132023638416288 0.006766907032616495 0 0 0
5879 1 3100.0 7.706962213487881e-05 0.006890734480619385 0.003795249676459927 0.0021769010119171107 0 0 0
5880 1 3100.0 1.673830964240723e-05 0.011079917904679455 0.01800765935810609 0.016058745643204607 0 0 0
5881 1 3100.0 0.0001991126968087576 0.017588393862309832 0.005368389953905972 0.01056805606808222 0 0 0
5882 1 3100.0 8.148279688433675e-05 0.001007410922258868 0.013080451157600531 0.012565839402770618 0 0 0
5883 1 3100.0 8.501252856368234e-06 0.017323366039411127 0.008981505551383395 0.013168272437422954 0 0 0
5884 1 3100.0 1.9602234499051887e-05 0.01242982680943046 0.01953820526471898 0.005178351585669487 0 0 0
5885 1 3100.0 0.00020472873601986113 0.00798073783237419 0.004844136583694296 0.011504538195079416 0 0 0
5886 1 3100.0 3.572212184148512e-06 0.014629200804287283 0.008411584084742922 0.0114693902273511 0 0 0
5887 1 3100.0 2.12558891974279e-05 0.0108058212296884 0.002664422296969575 0.0025207379682689974 0 0 0
5888 1 3100.0 5.315297435312785e-05 0.007333643173342052 0.0007587556667174871 0.008708381826781015 0 0 0
5889 1 3100.0 9.28909204558604e-05 0.004841166675787419 0.004403746286307611 0.011233857529906844 0 0 0
5890 1 3100.0 2.5894795191088693e-05 0.009048165293630627 0.017972959005024918 0.013016162186724661 0 0 0
5891 1 3100.0 6.5433250022273355e-06 0.015659334421254712 0.017355652200810354 0.01747113051679594 0 0 0
5892 1 3100.0 5.951846224610001e-05 0.01265543593716916 0.00037137878597778097 0.017417602517346094 0 0 0
5893 1 3100.0 6.53640569402796e-05 0.00128519684264097 0.019015380472751014 0.015368668698858586 0 0 0
5894 1 3100.0 8.837599459403282e-05 0.01361610720855213 0.005869669557269572 0.013000010888950517 0 0 0
5895 1 3100.0 0.00011225738424745366 0.007746395522139764 0.0012242320992115756 0.011675778786671028 0 0 0
5896 1 3100.0 6.120278807802053e-05 0.008160943817904193 0.009849895802956227 0.011641334303708147 0 0 0
5897 1 3100.0 0.000101323134457568 0.0014701208391221879 0.013042201399672009 0.007228127566118977 0 0 0
5898 1 3100.0 0.00014672453234736165 0.015044182501515787 0.012783396341918808 0.007558713210710455 0 0 0
5899 1 3100.0 6.908783588954748e-05 0.006568194510141496 0.01189490686381015 0.006277031847647688 0 0 0
5900 1 3100.0 4e-05 0.002355885236862268 0.011741610759854694 0.019200845197372234 0 0 0
5901 1 3100.0 5.6546305117019975e-06 0.015846475950474195 0.0014834216729375492 0.018738693549931438 0 0 0
5902 1 3100.0 2.082165238951845e-05 0.016176821639159643 0.014804510692263769 0.01642313140910276 0 0 0
5903 1 3100.0 0.00013724711611431828 0.0014055726911199873 0.017446129093846317 0.0009007291522937665 0 0 0
5904 1 3100.0 2.414959653028472e-05 0.01973840519037162 0.0009882157031277832 0.018250153796549068 0 0 0
5905 1 3100.0 1.095124700946822e-05 0.01253992132958992 0.007120075925572192 0.00327931868128121 0 0 0
5906 1 3100.0 8.62446649428819e-05 0.01964906294054077 0.012088755330559618 0.017860522388207165 0 0 0
5907 1 3100.0 9.575724128837525e-05 0.0011210716822015981 0.013019553444193244 0.012249060411978811 0 0 0
5908 1 3100.0 2.6291616502295408e-05 0.005198974005498191 0.006327337769448499 0.00985824802505625 0 0 0
5909 1 3100.0 0.00020343399410388676 0.010093425197040554 0.018127487007930355 0.013893229995814544 0 0 0
5910 1 3100.0 9.638555752597562e-05 0.017214767745338696 0.0051519799096652495 0.004260906796202668 0 0 0
5911 1 3100.0 0.00012480884785117212 0.014585878281122512 0.015010896111896271 0.01374732608299701 0 0 0
5912 1 3100.0 0.00017167214482751068 0.005026391736980521 0.008734580715533397 0.017752182209518044 0 0 0
5913 1 3100.0 2.2009046060362368e-05 0.009700627445010964 0.017529917144695015 0.017005440751565435 0 0 0
5914 1 3100.0 0.00014818480989062181 0.018124006901368808 0.008246503246776402 0.015264083017656907 0 0 0
5915 1 3100.0 0.00010824486200340734 0.005430212307276936 0.018057600170331072 0.0020406041136860668 0 0 0
5916 1 3100.0 9.286200587401377e-06 0.01236888910220643 0.005603470669637988 0.002232753975934031 0 0 0
5917 1 3100.0 0.0001809947721859743 0.0019142196444150226 0.008757758199311065 0.004248129757366267 0 0 0
5918 1 3100.0 6.340328116909556e-05 0.007143833067553114 0.012044585811984894 0.0006294077129650824 0 0 0
5919 1 3100.0 0.00015113228922570914 0.011463311180585677 0.012443029780494753 0.01804519104222511 0 0 0
5920 1 3100.0 1.372194155100651e-05 0.0055455466122797245 0.00838452486689871 0.0021617408352016163 0 0 0
5921 1 3100.0 9.209017383673761e-05 0.013757257866521166 0.0058841306954714795 0.010655866220271835 0 0 0
5922 1 3100.0 0.00014413851550461782 0.010900135977448839 0.01291109872048148 0.005349886936100939 0 0 0
5923 1 3100.0 9.34627479855326e-05 0.002087795899653631 0.010254003906661825 0.003272237106174766 0 0 0
5924 1 3100.0 7.185513229728593e-06 0.015473440731446426 0.013909653047274498 0.005974702557972303 0 0 0
5925 1 3100.0 0.00024978290098658996 0.01169285026857155 0.0003466604449375002 0.009665054342434263 0 0 0
5926 1 3100.0 0.00018533458261042434 0.004709342676664523 0.013100349575272183 0.010814025283883238 0 0 0
5927 1 3100.0 1.5090536182478667e-05 0.017534401726551418 0.011146504798941128 0.017333488021317425 0 0 0
5928 1 3100.0 0.00013455857569154224 0.007006260837626539 0.008871624828718134 0.018903975911393575 0 0 0
5929 1 3100.0 0.00020124274764470512 0.007815628611356006 0.013275465816032523 0.017144704764668256 0 0 0
5930 1 3100.0 5.95554201393233e-06 0.014480572933248214 0.0028337664989489643 0.015611832571394552 0 0 0
5931 1 3100.0 4e-05 0.018524552101024338 0.0030563911963530014 0.006307963327140466 0 0 0
5932 1 3100.0 7.5926962201605725e-06 0.00904936095361917 0.01281196627717304 0.019091097756224504 0 0 0
5933 1 3100.0 1.434154571100036e-05 0.006749331544896997 0.001018813495754874 0.010380083261874914 0 0 0
5934 1 3100.0 9.983744006928598e-05 0.018629452600539012 0.000574527663729585 0.0009045735006121753 0 0 0
5935 1 3100.0 0.00012158802543566062 0.0016515498595855423 0.016084936403770674 0.013740394839369662 0 0 0
5936 1 3100.0 9.296818782807958e-06 0.004966263078904113 0.011237274795277306 0.006896326207657138 0 0 0
5937 1 3100.0 1.5791463703856646e-05 0.018836641926332734 0.0020937218643095968 0.0121250912153976 0 0 0
5938 1 3100.0 2.7604060685283684e-05 0.011490035705480968 0.013540533102522616 0.008353494351008807 0 0 0
5939 1 3100.0 1.4171133841286478e-05 0.004098396276150945 0.010394064068113162 0.01173684721394362 0 0 0
5940 1 3100.0 7.338391141053229e-05 0.016842061408219387 0.01832582369318334 0.011054439832942521 0 0 0
5941 1 3100.0 7.989920739395433e-05 0.01773010979539359 0.019698883748219473 0.014976675258931567 0 0 0
5942 1 3100.0 0.00019772341843105973 0.012198859173410341 0.005994876940670224 0.014745752693080526 0 0 0
5943 1 3100.0 0.00015799985615970986 0.019052646461999223 0.015969745701290377 0.013362944659794481 0 0 0
5944 1 3100.0 9.40362889276197e-05 0.017136223357131157 0.014087958314283324 0.016964497615875252 0 0 0
5945 1 3100.0 5.663186306666108e-05 0.018160853277109403 0.007547376154925943 0.007810413080469358 0 0 0
5946 1 3100.0 6.570058598526e-05 0.008305681325190125 0.014577506864538806 0.016178582951705354 0 0 0
5947 1 3100.0 1.2880771795486394e-05 0.010670656908135817 0.016582027724015586 0.0005853453240132587 0 0 0
5948 1 3100.0 0.0001526513924379998 0.019677034285588972 0.0010940935092766464 0.0024439502217713654 0 0 0
5949 1 3100.0 4.5779091244959034e-05 0.0033105865865242896 0.008204607982936518 0.017075344359116524 0 0 0
5950 1 3100.0 6.011421536011852e-05 0.00333780549705535 0.017932720815681112 0.016485848645933235 0 0 0
5951 1 3100.0 0.0001205074884314083 0.008875195036380153 0.0005051196269172472 0.0037626295536862726 0 0 0
5952 1 3100.0 9.880340079510874e-05 0.01205139804164456 0.0007646131355147646 0.006989357080757317 0 0 0
5953 1 3100.0 0.00010022403914073753 0.018793556157447825 0.005837709618407827 0.014210756828427916 0 0 0
5954 1 3100.0 0.00015101833463405638 0.006606029882275549 0.019295951676671006 0.0008674167565319448 0 0 0
5955 1 3100.0 6.057150974433327e-05 0.011254045010268263 0.00811113945682248 0.002891986024233593 0 0 0
5956 1 3100.0 8.534471833598205e-05 0.019517501901955323 0.00807152565511055 0.017224109865185546 0 0 0
5957 1 3100.0 1.6119210411034007e-05 0.019071554352964887 0.006700680068475709 0.0014684044025898397 0 0 0
5958 1 3100.0 1.7292890385396743e-05 0.00519589178117206 0.00010415980307926357 0.016429378152299536 0 0 0
5959 1 3100.0 1.1445854822086076e-05 0.013091844048152005 0.00728600796381832 0.005750433516187061 0 0 0
5960 1 3100.0 7.27959584477792e-05 0.008866566967005947 0.009137405215351491 0.007125161237739574 0 0 0
5961 1 3100.0 1.0457734238534156e-05 0.008867665105418044 0.004753274038981847 0.019471574366069912 0 0 0
5962 1 3100.0 0.00017486421987225563 0.013837866335792518 0.0009767926095700244 0.014577128752755254 0 0 0
5963 1 3100.0 9.347638726423472e-05 0.010798393955586119 0.016288736200926097 0.002694568940504374 0 0 0
5964 1 3100.0 0.00011635201146785053 0.011388831276396809 0.013235404280386444 0.016930108212668098 0 0 0
5965 1 3100.0 1.529304103286647e-05 0.014866247468850282 0.008528387526139358 0.009896778782012384 0 0 0
5966 1 3100.0 4.505432403579828e-05 0.01916783198138532 0.01353997903131535 0.01590756947766216 0 0 0
5967 1 3100.0 5.8970114123513367e-05 0.004592217914689914 0.007352433057113828 0.016357627656973843 0 0 0
5968 1 3100.0 7.29944083593135e-05 0.003014717460132004 0.013892809499630357 0.007622644514330881 0 0 0
5969 1 3100.0 0.0001271861727853554 0.007577774010285124 0.013690670582054091 0.012119536989227799 0 0 0
5970 1 3100.0 1.6579196991027767e-05 0.014769645851489602 0.016340675382049617 0.003641170064133636 0 0 0
5971 1 3100.0 0.00011337783672159569 0.004939763734438207 0.016994782954864337 0.015147471038269118 0 0 0
5972 1 3100.0 2.0893741700659974e-05 0.004533902432167706 0.0005895087427885446 0.019006285594068695 0 0 0
5973 1 3100.0 6.177972901000742e-05 0.007772769385935261 0.006351826448365931 0.007018941419401443 0 0 0
5974 1 3100.0 0.00016361033437146768 0.01227114599307004 0.007812046683025512 0.006127119641381768 0 0 0
5975 1 3100.0 4.725269376488483e-05 0.005428811175921149 0.014907698334323373 0.002886335231249089 0 0 0
5976 1 3100.0 8.037690662961901e-05 0.010381662603176507 0.008778450990703375 0.01800672676441026 0 0 0
5977 1 3100.0 4e-05 0.015238970309576433 0.002309604582451609 0.004192659005052902 0 0 0
5978 1 3100.0 0.00018782001954150852 0.013094230695551271 0.008889429986922553 0.012897523108751226 0 0 0
5979 1 3100.0 6.5858128037515966e-06 0.009357348416645626 0.01967805080789794 0.015506488698981948 0 0 0
5980 1 3100.0 5.892701191881425e-05 0.019413859498620352 0.0009671107140375013 0.0010292155708838688 0 0 0
5981 1 3100.0 7.002739967026699e-05 0.014663636702229105 0.00566495546285254 0.01782072845190424 0 0 0
5982 1 3100.0 4.190662865720808e-05 0.0030095246995994708 0.008643184455101899 0.0073394599328383105 0 0 0
5983 1 3100.0 3e-05 0.001141125959133041 0.013177278411019486 0.010830223509395583 0 0 0
5984 1 3100.0 0.00010645284611252813 0.007351847902474921 0.007762465589362392 0.016791461051910005 0 0 0
5985 1 3100.0 1.2253747974719611e-05 0.013118412497231988 0.0021398912230574047 0.008800705034681746 0 0 0
5986 1 3100.0 9.933132312068342e-05 0.0019503120356847202 0.0003620227762294694 0.0007618798563505904 0 0 0
5987 1 3100.0 0.00011845502591015194 0.007891688010768234 0.004065104020180453 0.007691156196695726 0 0 0
5988 1 3100.0 5.334509483336119e-06 0.009102886614311552 0.01038324456154437 0.019185706346368948 0 0 0
5989 1 3100.0 1.9510619772134714e-05 0.010560224353856153 0.016246381505562502 0.00755447022181119 0 0 0
5990 1 3100.0 8.214019577929573e-05 0.002294462268800039 0.0030721823759794166 0.00736575693076854 0 0 0
5991 1 3100.0 4.60018332237553e-05 0.006538000436268551 0.014109092841328929 0.0006382122581192242 0 0 0
5992 1 3100.0 0.00017141073859408676 0.014415920711711314 0.0057440666707741315 0.012309439104835678 0 0 0
5993 1 3100.0 9.384371324373092e-06 0.017823766281476413 0.018560850879380367 0.01925352272840398 0 0 0
5994 1 3100.0 1.0528202924542763e-05 0.0039108202186486545 0.013149072183812371 0.006487961375800916 0 0 0
5995 1 3100.0 7.271937739881896e-05 0.0029103580902411275 0.00909949475027291 0.018601013129950276 0 0 0
5996 1 3100.0 8.026774701068899e-05 0.016178496697878134 0.0013813336437703966 0.014876670464796191 0 0 0
5997 1 3100.0 8.345122249878621e-05 0.006093484677718189 0.002791168430766264 0.018987264857974265 0 0 0
5998 1 3100.0 0.00011337795236396923 0.01628503405057621 0.01083584053476503 0.007177301547904256 0 0 0
5999 1 3100.0 5.496912053201906e-06 0.0008359269760930464 0.0047235365179361085 0.008009547514376625 0 0 0
6000 1 3100.0 1.066837998166036e-05 0.003427813537616773 0.002795204498293003 0.014847130230541983 0 0 0
6001 1 3100.0 8.378374463852109e-05 0.003888362093439848 9.314162609417302e-05 0.014614749869161808 0 0 0
6002 1 3100.0 0.00014324266858508914 0.006075220511315294 0.014181115964812198 0.01768228539383633 0 0 0
6003 1 3100.0 1.291483223872259e-05 0.009816470686708269 0.008501250649798347 0.008206355670896918 0 0 0
6004 1 3100.0 7.8071254898518e-05 0.0034077857151967963 0.011823223340480665 0.019888305477993976 0 0 0
6005 1 3100.0 0.00010515143408995326 0.006041596167395531 0.009090177534025964 0.00029781489440132083 0 0 0
6006 1 3100.0 2.1653273782650902e-05 0.0037179385027495556 0.016878068127236325 0.014115771151349392 0 0 0
6007 1 3100.0 9.549049814102039e-05 0.004728372343669859 0.001953752617312998 0.005238255302302266 0 0 0
6008 1 3100.0 1.0321920245009975e-05 0.0019531551933916294 0.012197199583693934 0.0021873017694128785 0 0 0
6009 1 3100.0 0.00010349857192825255 0.00108960274186915 0.007319492449166085 0.006921202306725153 0 0 0
6010 1 3100.0 0.00013187578062580395 0.009193729552115226 0.0038309431992024083 0.008810446065704384 0 0 0
6011 1 3100.0 9.669968785728081e-05 0.00042046763155189406 0.014506472298359935 0.019199318606252392 0 0 0
6012 1 3100.0 0.00011427928199885434 0.009778961487142027 0.012135121372113105 0.011470634246035756 0 0 0
6013 1 3100.0 5.406450740678308e-05 0.0011378694189901318 0.009561344984531553 0.001833859035308178 0 0 0
6014 1 3100.0 0.00011394857756303445 0.012573501264035725 0.008860924035266666 0.012237985441869796 0 0 0
6015 1 3100.0 0.00014883841343137116 0.001170834756667244 0.007675159948650399 0.004463039299517564 0 0 0
6016 1 3100.0 5.354796129394336e-06 0.017301241711835495 0.011633271872842594 0.007778825549910695 0 0 0
6017 1 3100.0 5.499722714269831e-05 0.008281438147411446 0.003215039154867695 0.007262256504779348 0 0 0
6018 1 3100.0 7.934833720456333e-05 0.01118492542985367 0.006934392332779334 0.001202455072264123 0 0 0
6019 1 3100.0 5.537574060440762e-05 0.0005241457169264115 0.007278139802887155 0.0007867751557963221 0 0 0
6020 1 3100.0 1.0034000015912372e-05 0.004216269579126665 0.013660674564576205 0.0019077198365110165 0 0 0
6021 1 3100.0 0.00011727703025630791 0.004846403655280488 0.005188667326312007 0.01752229646547283 0 0 0
6022 1 3100.0 5.9290486901551646e-05 0.0062500950320805975 0.010916208119562043 0.003783881372118907 0 0 0
6023 1 3100.0 8.137377185732938e-05 0.01563485233229959 0.005295137162091081 0.01114858759834384 0 0 0
6024 1 3100.0 0.00012126201421626611 0.014548752960932245 0.016817997025394632 0.0031225314059632413 0 0 0
6025 1 3100.0 3e-05 0.0019399675607561161 0.009325212381466746 0.0016208601749868603 0 0 0
6026 1 3100.0 3e-05 0.007125290282098663 0.01885281748759692 0.016826626127764237 0 0 0
6027 1 3100.0 8.504111831197431e-05 0.015125680442983472 0.017595211868781005 0.0020205853538080485 0 0 0
6028 1 3100.0 0.00017313824784456636 0.0036035537633794727 0.013594797276298969 0.0021978803666310685 0 0 0
6029 1 3100.0 4.951922397742391e-05 0.010347402043236937 0.0028632399570125014 0.01253550788037039 0 0 0
6030 1 3100.0 7.014920336044488e-06 0.0036381664936847554 0.006983186175885103 0.0094384257705904 0 0 0
6031 1 3100.0 0.00016464995734685465 0.005701517523160478 0.009953552458479151 0.01581501038270843 0 0 0
6032 1 3100.0 1.3023372761318876e-05 0.018724198187549383 0.0026885905350427118 0.01293739683168675 0 0 0
6033 1 3100.0 7.165491001719604e-05 0.013012531009812195 0.011552900168511699 0.015954845463410913 0 0 0
6034 1 3100.0 5.369960786280095e-05 0.01755381323167239 0.008752160381862141 0.010481137128387477 0 0 0
6035 1 3100.0 5.157763592915832e-05 0.016545260154298688 0.006528414510223163 0.006544962855583112 0 0 0
6036 1 3100.0 7.064973277049975e-05 0.0036941365484745325 0.017903473367686537 0.01773639915697173 0 0 0
6037 1 3100.0 6.631116665052032e-05 0.012728722501698483 0.007692416897055546 0.01987643335272082 0 0 0
6038 1 3100.0 7.815057383956914e-05 0.008103168289617305 0.014472411752645629 0.009148300341661416 0 0 0
6039 1 3100.0 8.471639066315792e-05 0.016226833659417086 0.01010447839709063 0.0021523039314733155 0 0 0
6040 1 3100.0 2.3387597667508845e-05 0.002014533355171594 0.015607350354510397 0.01506935753907809 0 0 0
6041 1 3100.0 2.4059314304292622e-05 0.00915751959685874 0.011262371118331997 0.019620866559199215 0 0 0
6042 1 3100.0 0.00023008255676777728 0.004613551313280767 0.007074430958930544 0.018751657504730106 0 0 0
6043 1 3100.0 8.335547674774466e-06 0.01876875634972109 0.019027031083973998 0.015306607459160598 0 0 0
6044 1 3100.0 1.8694073189495786e-05 0.009563181052677922 0.013232873383579157 0.002264917871046618 0 0 0
6045 1 3100.0 0.00014701032422272995 0.016484212065522672 0.00390612230820676 0.002319015127868651 0 0 0
6046 1 3100.0 0.00010466340269433058 0.007090566221780737 0.008385984445671452 0.0037275228096289833 0 0 0
6047 1 3100.0 0.0001139624868653136 0.007258581783622519 0.011725723280694635 0.008754522487570037 0 0 0
6048 1 3100.0 9.392918806003668e-06 0.00902652791964877 0.016042910441455196 0.01679338344155466 0 0 0
6049 1 3100.0 0.00016375237078563744 0.012219149440904147 0.003812354312822711 0.01468737723127993 0 0 0
6050 1 3100.0 8.521150593204358e-05 0.014638367833357075 0.007730656133608411 0.00979280572440161 0 0 0
6051 1 3100.0 9.635073596724957e-05 0.009569929996413463 0.004610706256645982 0.017548288855725708 0 0 0
6052 1 3100.0 0.00012283243082083955 0.0175122776901579 0.016894366570510518 0.003884059399206774 0 0 0
6053 1 3100.0 0.00017274657434360646 0.018841801518451422 0.015763393478029193 0.009360571450361498 0 0 0
6054 1 3100.0 5.798193121796329e-05 0.002460966237876742 0.0030518181222661824 0.00808556343624923 0 0 0
6055 1 3100.0 6.992560893300655e-05 0.01842955965748864 0.00360339659671528 0.017199811831605873 0 0 0
6056 1 3100.0 5.4665515042381674e-05 0.00215992255855413 0.007980072467948744 0.008832623793473311 0 0 0
6057 1 3100.0 4.479148518439753e-05 0.0004628185756074639 0.008517705989839442 0.013764511024233489 0 0 0
6058 1 3100.0 6.316761277252106e-06 0.009374639546284797 0.012648163993096624 0.006777304499602995 0 0 0
6059 1 3100.0 1.0922021842225223e-05 0.0007803748117862368 0.0014141041997119607 0.015076752638949784 0 0 0
6060 1 3100.0 0.0001286453287042509 0.0014917113902023443 0.00874703141352874 0.010104291822055618 0 0 0
6061 1 3100.0 0.00014045915139414896 0.0108486976000484 0.011856013193993955 0.011283013092051684 0 0 0
6062 1 3100.0 8.287310134806857e-06 0.009750090806939393 0.0008499392722304484 0.01757681837656393 0 0 0
6063 1 3100.0 4e-05 0.018061102154021357 0.007107239871029313 0.014064723231212835 0 0 0
6064 1 3100.0 4.9251166704510595e-05 0.012247492429000438 0.008946090790185903 0.0031305473603890606 0 0 0
6065 1 3100.0 5.523557902519555e-05 0.018937895136008707 0.0037539587449753426 0.005352152604667425 0 0 0
6066 1 3100.0 0.0001056866725820156 0.00783465165283789 0.016704722696893663 0.01756231568746502 0 0 0
6067 1 3100.0 9.588776876294385e-06 0.014916278167308972 0.016827049038664194 0.014062783823463256 0 0 0
6068 1 3100.0 2.7204742077399816e-05 0.0029168398148968636 0.010759904716298627 0.016048680936063663 0 0 0
6069 1 3100.0 0.0001248010138140968 0.01486121033177718 0.006907756443022685 0.011335002313690208 0 0 0
6070 1 3100.0 4.774580024360751e-05 0.019881684662251486 0.0011312712137393184 0.008299649812866475 0 0 0
6071 1 3100.0 0.00016722054559649172 0.013028295880463918 0.011942721902024094 0.01975695731349447 0 0 0
6072 1 3100.0 7.666172924930961e-05 0.019511229551098973 0.013269403719808913 0.013255000534931932 0 0 0
6073 1 3100.0 5.29768492367429e-05 0.002953583795889288 0.0025995155253972224 0.018871148720854554 0 0 0
6074 1 3100.0 4e-05 0.011305930149915837 0.019516475293190526 0.0028666830756577497 0 0 0
6075 1 3100.0 7.027417306443873e-05 0.019297115335802677 0.0031988885997233157 0.019903464487867003 0 0 0
6076 1 3100.0 4e-05 0.0198384186272588 0.0026374257073342277 0.01319523092615341 0 0 0
6077 1 3100.0 9.112968344749345e-05 0.0040018651910673575 0.0076387805145492205 0.0016065898812084676 0 0 0
6078 1 3100.0 2.2245717185886028e-05 0.0035364117184897583 0.014508296207518347 0.009327159675677264 0 0 0
6079 1 3100.0 8.886946373191339e-05 0.006805589980662325 0.011307405476071434 0.0003327290474302679 0 0 0
6080 1 3100.0 6.849736190088628e-05 0.014722988172207987 0.006564392459250407 0.018361607390214762 0 0 0
6081 1 3100.0 4e-05 0.003272582162801109 0.0012474038278478985 0.003657458583429248 0 0 0
6082 1 3100.0 8.082110526611161e-05 0.00894400952010343 0.006852222631426502 0.011368249512861561 0 0 0
6083 1 3100.0 4.402834952196723e-06 0.0008151187326261741 0.008394766774320958 0.010390364665830635 0 0 0
6084 1 3100.0 1.1813170061574178e-05 0.009213547076675552 0.009748945644271647 0.019281083099127256 0 0 0
6085 1 3100.0 1.0872500094359545e-05 0.006661627781138157 0.01788822432515996 0.018889776436086542 0 0 0
6086 1 3100.0 5.27201504945368e-05 0.010014914127801046 0.009092748077003904 0.014743937939364187 0 0 0
6087 1 3100.0 1.9030534967168294e-05 0.008184585483683213 0.01887251026414559 0.0033162163712787836 0 0 0
6088 1 3100.0 1.7480698356055613e-05 0.013053893482005979 0.0007696983108995816 0.00774024986163751 0 0 0
6089 1 3100.0 1.4461240823474522e-05 0.01723730352862533 0.008453409575798687 0.0157094725508429 0 0 0
6090 1 3100.0 3e-05 0.014714693843205059 0.009579670125289695 0.008655475047288088 0 0 0
6091 1 3100.0 1.8181423863611474e-05 0.005444566771307757 0.0057516957591009854 0.0049585014467721 0 0 0
6092 1 3100.0 5.976834444409483e-05 0.01599121386639582 0.002103448150037663 0.0013086362766902932 0 0 0
6093 1 3100.0 1.3736758439699357e-05 0.011107205763669822 0.009707325274942597 0.009425972569651015 0 0 0
6094 1 3100.0 0.00016247019823086597 0.006057324969711494 0.019388120126559313 0.01721767690187786 0 0 0
6095 1 3100.0 2.5151373437357277e-05 0.00972003544426611 0.012300041966899213 0.010772318532051708 0 0 0
6096 1 3100.0 2.213554995636953e-05 0.017643315608865257 0.013209403306549993 0.016197273815145546 0 0 0
6097 1 3100.0 6.470531390897939e-05 0.015164396486946332 0.010575344137782092 0.01896488873468654 0 0 0
6098 1 3100.0 1.1226192538176284e-05 0.00028385517433584764 0.015337100787797417 0.007043396971039163 0 0 0
6099 1 3100.0 0.00021693007850556842 0.01374239982280185 0.010702244567750558 0.005729482738262187 0 0 0
6100 1 3100.0 0.00012329745281256177 0.011079866503961078 0.015063411207538947 0.008405998573734504 0 0 0
6101 1 3100.0 5.673445770780445e-06 0.01784529068958201 0.011225663307448737 0.005274637004886701 0 0 0
6102 1 3100.0 5.283688439016062e-05 0.0033982690989096203 0.01239535631250961 0.018632025563711938 0 0 0
6103 1 3100.0 0.00022772153496130806 0.004983480951997643 0.016989592219038965 0.008401399030919979 0 0 0
6104 1 3100.0 6.13259034810671e-05 0.010349355602200877 0.013388844714953432 0.006248645473148167 0 0 0
6105 1 3100.0 6.510916795830125e-06 0.004502853503205958 0.006588834633637234 0.017097468677642547 0 0 0
6106 1 3100.0 6.0566543695325194e-05 0.008861852756233364 0.009414254208312567 0.01577239129388455 0 0 0
6107 1 3100.0 1.2987154256085093e-05 0.012438800917680478 0.0007620973558291 0.00479526385920164 0 0 0
6108 1 3100.0 9.758867477913804e-06 0.006658653719935021 0.002642451344540633 0.011178163567784671 0 0 0
6109 1 3100.0 0.0001094481799819266 0.00906503789592325 0.01926647930296903 0.005306427329935208 0 0 0
6110 1 3100.0 9.593662652114262e-05 0.004604842229820386 0.009637060775976066 0.015610341607780808 0 0 0
6111 1 3100.0 3e-05 0.0004407626760695387 0.013019729057277248 0.009966947186893383 0 0 0
6112 1 3100.0 0.00011531392443600047 0.015075363599274305 0.004263066847836185 0.016157065369724163 0 0 0
6113 1 3100.0 1.1442153170001108e-05 0.009781263112091298 0.011519794287532548 0.005723221333310854 0 0 0
6114 1 3100.0 6.599320572550506e-05 0.01827391211070356 0.01598035247725871 0.017892830737616217 0 0 0
6115 1 3100.0 0.00020540588487209517 0.017631967224972872 0.01661793590464907 0.003221188039029148 0 0 0
6116 1 3100.0 0.0001249070173998536 0.012047046672670333 0.01206568047104823 0.019251279784033903 0 0 0
6117 1 3100.0 0.00018140189404369366 0.014248526344749398 0.01739990998983652 0.001350484203466199 0 0 0
6118 1 3100.0 3e-05 0.01676344679551393 0.01681260678237506 0.010228153130183427 0 0 0
6119 1 3100.0 1.044423766174845e-05 0.019208107942790268 0.016366932892321166 0.008382724997014167 0 0 0
6120 1 3100.0 2.040954280753528e-05 0.004843150631308128 0.01598183399200393 0.0158074588355106 0 0 0
6121 1 3100.0 8.600588892738443e-05 0.01878455977522631 0.00042792491294443174 0.017390909209140902 0 0 0
6122 1 3100.0 0.00018212710862182903 0.017187310898251484 0.00852734675592895 0.006493914684313954 0 0 0
6123 1 3100.0 5.7166997665450044e-05 0.0001153153738876373 0.017368302495512952 0.016834990464105266 0 0 0
6124 1 3100.0 4e-05 0.008616427220653573 0.007897201521542227 0.016088985146767987 0 0 0
6125 1 3100.0 8.46190713847405e-06 0.018986791886613542 0.01624952861623757 0.0006642721285463832 0 0 0
6126 1 3100.0 6.860733485335498e-05 0.004298459063746496 0.006499302359368735 0.011164954332186606 0 0 0
6127 1 3100.0 9.013727784903751e-05 0.009030842459077773 0.0002510142966641976 0.00922892888498319 0 0 0
6128 1 3100.0 1.0436197901413217e-05 0.009152218610650563 0.019215232414172362 0.006381519034271877 0 0 0
6129 1 3100.0 7.805219923131427e-05 0.013207436096178356 0.001926364090638665 0.01218122353908052 0 0 0
6130 1 3100.0 3e-05 0.009398221189616725 0.008149222643917839 0.007564623958910053 0 0 0
6131 1 3100.0 1.983749960781639e-05 0.01875108152525309 0.008885060518724463 0.009127532174585989 0 0 0
6132 1 3100.0 6.693236919217313e-05 0.010004665409606745 0.002209363481244236 0.011052384548840622 0 0 0
6133 1 3100.0 6.566745209705795e-06 0.0058235196886271 0.015854007846987036 0.01630045855995117 0 0 0
6134 1 3100.0 9.250133217756606e-06 0.01879175939507159 0.015849475665376228 0.01918030594623704 0 0 0
6135 1 3100.0 6.861979845968059e-05 0.003343699060352521 0.005380183166865716 0.009543516887402686 0 0 0
6136 1 3100.0 1.752058350336072e-05 0.012410942509732093 0.012723598558817203 0.00027571964577008666 0 0 0
6137 1 3100.0 0.0001421509276486942 0.005095041413171821 0.01966449462726873 0.004698700100588134 0 0 0
6138 1 3100.0 4e-05 0.0012521410712550464 0.01068438468474547 0.003835153460134823 0 0 0
6139 1 3100.0 6.200895090208678e-06 0.0022421158016692135 0.007130204414937758 0.012688030939590207 0 0 0
6140 1 3100.0 6.93687542711506e-05 0.0016544115885802134 0.011923862814634036 0.009976170692935294 0 0 0
6141 1 3100.0 0.00012386511313911688 0.010277639326028775 0.017926314695265875 0.016717927049326224 0 0 0
6142 1 3100.0 8.233814063573106e-05 0.0015806946416106536 0.014347838985049642 0.011806712331182563 0 0 0
6143 1 3100.0 3.538148224318661e-06 0.018715838556299477 0.006476008730068569 0.016444587568236864 0 0 0
6144 1 3100.0 1.2621909963353193e-05 0.007788832248282045 0.011785250052609357 0.018641276577842272 0 0 0
6145 1 3100.0 0.00010711047935603193 0.016677541735930952 0.01574917073848639 0.0052837629962542414 0 0 0
6146 1 3100.0 4e-05 0.00729254547321978 0.012733059510082228 0.007596535736184946 0 0 0
6147 1 3100.0 1.1451643414912059e-05 0.005963271181311315 0.0025622975415967243 0.009078091217496795 0 0 0
6148 1 3100.0 0.00015751169835348698 0.001374084211288592 0.0036678010925986033 0.004253403124855807 0 0 0
6149 1 3100.0 0.00020147708710238754 0.009490987243384921 0.017413914216824276 0.01735318845559197 0 0 0
6150 1 3100.0 6.351609942829691e-05 0.00704105008671737 0.001630005543069229 0.007459150822222632 0 0 0
6151 1 3100.0 6.985932361060601e-05 0.0010807722893928116 0.010656189308267066 0.018106919636314278 0 0 0
6152 1 3100.0 1.480422619645441e-05 0.017858169706097864 0.011351436810326148 0.010909307043864313 0 0 0
6153 1 3100.0 6.0374356237048854e-05 0.00934114438457644 0.01425017133027328 0.010584535854610931 0 0 0
6154 1 3100.0 0.0001368363302649288 0.015015170325830642 0.010818434306394507 0.011431941577826153 0 0 0
6155 1 3100.0 0.00016654606190388659 0.009469535627409743 0.0023286071182687757 0.010090240132769308 0 0 0
6156 1 3100.0 9.586034293447069e-05 0.009975733187896326 0.0021779428976211332 0.006391381836633773 0 0 0
6157 1 3100.0 0.0001086564285728999 0.0032945190238955857 0.005308182035903318 0.01429035570614704 0 0 0
6158 1 3100.0 0.00011247198431084828 0.01625769604056336 0.01667689269387419 0.010926529313565261 0 0 0
6159 1 3100.0 1.1893960615337412e-05 0.0039371457288790825 0.0035764747321881036 0.008450527229465493 0 0 0
6160 1 3100.0 9.004610513506095e-06 0.00858322643451627 0.010280315851703798 0.01418732173544035 0 0 0
6161 1 3100.0 5.786512265231994e-05 0.017623928312110806 0.010848074136442258 0.0015394994437311713 0 0 0
6162 1 3100.0 8.968997362410201e-05 0.004041282203349159 0.017317430182890718 0.008701586713210988 0 0 0
6163 1 3100.0 2.5e-06 0.01764047486104491 0.01874635494961702 0.007274023942057143 0 0 0
6164 1 3100.0 0.00016301523316392344 0.016939757943296985 0.001765522512935949 0.008955403221563343 0 0 0
6165 1 3100.0 6.0614765561118946e-05 0.008468733916266138 0.013099707017279817 0.01773733829251519 0 0 0
6166 1 3100.0 0.00013995670509948263 0.010157858691410445 0.0055123980744655725 0.010737871619729772 0 0 0
6167 1 3100.0 7.412853123220873e-05 0.007351428428776 0.011793888789364196 0.013476898053138495 0 0 0
6168 1 3100.0 9.427172842569603e-05 0.005580208896663648 0.018030337841945437 0.007337761993338506 0 0 0
6169 1 3100.0 0.00010863075842423453 0.005576789317291031 0.0068176042856012515 0.016541069934652472 0 0 0
6170 1 3100.0 1.2256764476289788e-05 0.0027285675091401093 0.010845840712307413 0.0028964472638293433 0 0 0
6171 1 3100.0 7.220901390376829e-05 0.008531372756570822 0.006759055184410292 0.005249057220536931 0 0 0
6172 1 3100.0 1.6092676028756267e-05 0.005175726132877491 0.01084922658236 0.01846837053437815 0 0 0
6173 1 3100.0 1.1146697485950177e-05 0.004705029743471561 0.005373525356792136 0.006055061594882396 0 0 0
6174 1 3100.0 0.00015523153227123659 0.00955054611403918 0.0011359321727253662 0.00784234226585051 0 0 0
6175 1 3100.0 0.00011641966481659905 0.00801869815736478 0.013788566479047783 0.018882001247269235 0 0 0
6176 1 3100.0 1.990585488476701e-05 0.005419969491537688 0.009477513627614712 0.01919451076297555 0 0 0
6177 1 3100.0 7.811651666039609e-06 0.011416894288206197 0.0074546743328549134 4.9508143634343725e-05 0 0 0
6178 1 3100.0 6.607882569979138e-05 0.010694232751976925 0.006881563027071306 0.010625596681893765 0 0 0
6179 1 3100.0 0.00011826069076197546 0.01628396107576446 0.01915438036725925 0.018886142085733332 0 0 0
6180 1 3100.0 1.1354928033645987e-05 0.019917909882580027 0.004808062228918863 7.194187964864385e-05 0 0 0
6181 1 3100.0 1.9380502374112614e-05 0.004176615022116809 0.001306257671327744 0.01278593090320847 0 0 0
6182 1 3100.0 1.3412039030432921e-05 0.002648678317411902 0.0033413310960945983 0.011649871198399659 0 0 0
6183 1 3100.0 1.5270821143854838e-05 0.004416772744061234 0.0020138328256648643 0.012507744655133457 0 0 0
6184 1 3100.0 0.00010257636674901981 0.005150462437705134 0.019587762666348284 0.015927204313789647 0 0 0
6185 1 3100.0 8.534617767491684e-06 0.01266686815077827 0.015252424922276735 0.007961967689403826 0 0 0
6186 1 3100.0 7.030415685805425e-06 5.1876776780003156e-05 0.016455106092841818 0.015265367639909473 0 0 0
6187 1 3100.0 3e-05 0.010437826407927437 0.01790886083181093 0.01306106580222591 0 0 0
6188 1 3100.0 7.248760347935149e-05 0.01877602367538703 0.019488293372854622 0.008600317017920566 0 0 0
6189 2 7870.0 0.0003 0.011602134807829047 0.002859681290420478 0.015881641548012235 0 0 0
6190 1 3100.0 6.435913774847225e-05 0.004117631339198505 0.01834484310567801 0.004693803292005647 0 0 0
6191 1 3100.0 9.679424937130261e-05 0.012662168272341331 0.00783591455387778 0.011296519599293597 0 0 0
6192 1 3100.0 4.515994087722423e-05 0.01918433102360538 0.007837693363751817 0.007717229462539188 0 0 0
6193 1 3100.0 1.2153052972767134e-05 0.015360308549407328 0.011140798323625922 0.006606807293954471 0 0 0
6194 1 3100.0 4.850452899874757e-05 0.0016344165834562485 0.019923754052757727 0.006089444614006066 0 0 0
6195 1 3100.0 8.761224629981221e-05 0.018004497605526824 0.0051212763698084834 0.009276406995902264 0 0 0
6196 1 3100.0 0.00012707187982106117 0.013020012730470404 0.004678176348286487 0.006036376573354321 0 0 0
6197 1 3100.0 1.9874692518426525e-05 0.011519803733152539 0.009148485915504776 0.002752448306591268 0 0 0
6198 1 3100.0 7.461004420278612e-06 0.0056535853057597665 0.009162167996288956 0.006556748889484534 0 0 0
6199 1 3100.0 8.227667805526982e-05 0.0021060632139364775 0.017456707864184066 0.016787802462090416 0 0 0
6200 1 3100.0 3.898724220325957e-06 0.01817017654693344 0.003504500013270918 0.008389631642197625 0 0 0
6201 1 3100.0 4e-05 0.006187196081014369 0.009188036878983142 0.004201418022486767 0 0 0
6202 1 3100.0 1.0687268187960739e-05 0.01243220659825124 0.009414091668494048 0.01907193457496481 0 0 0
6203 1 3100.0 1.802812403299083e-05 0.009749762211676304 0.00704904707053813 0.014976874974191102 0 0 0
6204 1 3100.0 0.00015296772962671004 0.001656703036599535 0.01710916072171127 0.019232313539647446 0 0 0
6205 1 3100.0 1.3063873650929051e-05 0.0013269248759887105 0.01390069523308465 0.008218066229731785 0 0 0
6206 1 3100.0 0.00012387143562849119 0.007895935132543061 0.005152861254882708 0.008655595525656439 0 0 0
6207 1 3100.0 0.00010035819484687922 0.00818198403557439 0.014966300646558654 0.00707512372991624 0 0 0
6208 1 3100.0 0.00011375182283502352 0.0043332007459531904 0.00872381692069604 0.004984101056863704 0 0 0
6209 1 3100.0 0.00010613600844302246 0.013298629598271666 0.011977807463089917 0.011264556764879531 0 0 0
6210 1 3100.0 4.6188816614937745e-05 0.011775194912489954 0.01740287159178786 0.0007781437377369973 0 0 0
6211 1 3100.0 1.2871895401248282e-05 0.0070198151394142635 0.013154832861547451 0.008307136933784846 0 0 0
6212 1 3100.0 6.156204162870639e-05 0.018016217463310873 0.009206812718694205 0.0033912271134231772 0 0 0
6213 1 3100.0 0.00015745849597172075 0.015383079831572315 0.01008761813475395 0.008694438911890479 0 0 0
6214 1 3100.0 2.2514490685317568e-05 0.005446242473364534 0.007338917542693194 0.012921995842069546 0 0 0
6215 1 3100.0 6.798397120694413e-05 0.0028327918933789 0.005548675876705038 0.006595989614418636 0 0 0
6216 1 3100.0 0.00012401908049121784 0.003704668457027267 0.013471673041974204 0.005632594887609255 0 0 0
6217 1 3100.0 2.3968027666737114e-05 0.00024272932240421778 0.008574034911085963 0.009798483735009748 0 0 0
6218 1 3100.0 5.019916994872653e-05 0.009419539904886655 0.006227361187678807 0.006910211891866266 0 0 0
6219 1 3100.0 8.309165956270366e-05 0.0014802719016967036 0.012303514579365904 0.008016040303596091 0 0 0
6220 1 3100.0 1.0234722343802307e-05 0.0008493310038101286 0.0171994077027386 0.01388764463479434 0 0 0
6221 1 3100.0 1.4261491557379e-05 0.01467658594878646 0.013779197562069996 0.00507821170655876 0 0 0
6222 1 3100.0 2.700209681357617e-05 0.01366776854188881 0.017783527209210136 0.0069909378938454725 0 0 0
6223 1 3100.0 0.00015754178064763833 0.009635740823007992 0.015092654000566075 0.004839852719939385 0 0 0
6224 1 3100.0 8.648210811831912e-05 0.00957963608724183 0.014235171011072528 0.0027693562602346296 0 0 0
6225 1 3100.0 1.1974556238694676e-05 0.00817952857554815 0.007689005916249281 0.011706468092878518 0 0 0
6226 1 3100.0 0.0001341316185668396 0.0011242276069368968 0.009265829057782091 0.015504114389665095 0 0 0
6227 2 7870.0 0.0003 0.006041095724613405 0.0004422839832245867 0.015710404207692173 0 0 0
6228 1 3100.0 9.755442613266727e-05 0.0067021930630186384 0.01176128718612779 0.018428052618956227 0 0 0
6229 1 3100.0 4.336855693302749e-05 0.018267845316244802 0.009024659483637792 0.009770555327153162 0 0 0
6230 1 3100.0 0.00011442228944754892 0.018087357141478702 0.017789543844288814 0.006197898857446273 0 0 0
6231 1 3100.0 7.508526575943656e-05 0.000613806858832499 0.011870879001102518 0.0014001181889653047 0 0 0
6232 1 3100.0 0.00012531830268865118 0.01431525702176239 0.009868061249975493 0.005161259573570689 0 0 0
6233 1 3100.0 8.671737404475622e-06 0.0076549099955530815 0.01672563179052875 0.003197736643009146 0 0 0
6234 1 3100.0 1.0048105255251657e-05 0.011655662007108065 0.005592304626652153 0.013887952346755068 0 0 0
6235 1 3100.0 1.9654615282334144e-05 0.0052960286810731635 0.019819299232935354 0.0192520204213424 0 0 0
6236 1 3100.0 6.1039163760429355e-06 0.006095161306515571 0.0013688381758994118 0.0020004717333166728 0 0 0
6237 1 3100.0 0.00014111431588591754 0.016069008967032034 0.006507477016399975 0.006460323135754072 0 0 0
6238 1 3100.0 0.00011033368493630353 0.00981385485923334 0.012239665369033606 0.009834321716259286 0 0 0
6239 1 3100.0 0.00021331996926494913 0.019233783758678347 0.004662014719928836 0.013153586208796891 0 0 0
6240 1 3100.0 8.529655879377162e-05 0.001048112769924904 0.0006213450661159022 0.003844863206746139 0 0 0
6241 1 3100.0 8.402533440683559e-05 0.006003222357327575 0.012322399775219798 0.0013023529423637837 0 0 0
6242 1 3100.0 1.0414222996305289e-05 0.002639597266683053 0.007022577158970739 0.010428427306174347 0 0 0
6243 1 3100.0 5.825836303428027e-05 0.001560732024565742 0.013743298832915706 0.00528812451450282 0 0 0
6244 1 3100.0 6.759848782052024e-06 0.01589831386225569 0.0184736975717501 0.018150188359840363 0 0 0
6245 1 3100.0 6.212070445775439e-05 0.0030230452396924016 0.013255749847437432 0.0031582095673620544 0 0 0
6246 2 7870.0 0.0003 0.015039993003625912 0.0021206479222941515 0.008310893253121045 0 0 0
6247 1 3100.0 8.092872500006058e-05 0.01361544438340307 0.008569606583079047 0.014996200451074644 0 0 0
6248 1 3100.0 4e-05 0.010443027580617792 0.01688088153471659 0.00351036710116206 0 0 0
6249 1 3100.0 8.682143706050363e-05 0.01797590340846701 0.009981981458342728 0.010449224900899804 0 0 0
6250 1 3100.0 6.606922339242284e-06 0.006276494310039012 0.0006944920580018092 0.012203418378359828 0 0 0
6251 1 3100.0 4.8299417465401894e-05 0.0015287612612540835 0.004467732899925641 0.019687262156735417 0 0 0
6252 1 3100.0 1.6678391334527417e-05 0.006154844179970228 0.006748316721228064 0.006639453635737061 0 0 0
6253 1 3100.0 5.570859142404827e-05 0.005254928541138879 0.008920861596355162 0.015032357507200533 0 0 0
6254 1 3100.0 0.0002144892536679456 0.008695286845617654 0.016782914901374107 0.00811410442131762 0 0 0
6255 1 3100.0 4.500257358340112e-05 0.01618765732888033 0.018468584224567552 0.017820648449507658 0 0 0
6256 1 3100.0 7.653383073414553e-05 0.0002588036695832937 0.008816839884607923 0.0014451045049191575 0 0 0
6257 1 3100.0 5.143830013372111e-05 0.01264175649289816 0.0188735495961233 0.0018358265948781175 0 0 0
6258 2 7870.0 0.0003 0.009055989106342461 0.014212866045468118 0.014134180938690738 0 0 0
6259 1 3100.0 0.00015077440296491903 0.0049552226226113865 0.014084948642051254 0.011041853181965378 0 0 0
6260 1 3100.0 0.00011323129546362838 0.00691533346613849 0.013737389110172698 0.0018244251748657432 0 0 0
6261 1 3100.0 0.0001465057131305445 0.012281599718872771 0.001022712480575143 0.0038436304724215006 0 0 0
6262 1 3100.0 2.6066298099171216e-05 0.0011410907479136774 0.017435757407155684 0.012498787835668511 0 0 0
6263 1 3100.0 9.018884012537039e-06 0.01168391105376379 0.012874867202263692 0.01499556309053141 0 0 0
6264 1 3100.0 0.00015823405343657365 0.008892948924769616 0.002799055587577063 0.012563688782499959 0 0 0
6265 1 3100.0 7.624491737654444e-05 0.01617637110743166 0.006063558551337037 0.005834954806181426 0 0 0
6266 1 3100.0 1.2826637868823476e-05 0.00802943778812875 0.014111335284991547 0.012626057174700413 0 0 0
6267 1 3100.0 5.747386295070834e-06 0.018658470892469612 0.017426418500153255 0.014522182606503165 0 0 0
6268 1 3100.0 1.0230059825294736e-05 0.00397906151845515 0.018281492962412504 0.0023501902430947625 0 0 0
6269 1 3100.0 7.437528598960917e-05 0.015215708893145118 0.019207469411850947 0.016108286769999973 0 0 0
6270 1 3100.0 1.6190162110294053e-05 0.01513467939956677 0.00422544900994399 0.017497421537058678 0 0 0
6271 1 3100.0 1.3234171021226919e-05 0.006633280290743021 0.012815760822071283 0.019137672641727443 0 0 0
6272 1 3100.0 9.472589478168744e-05 0.01577180595052499 0.016540758747371206 0.008908013217555398 0 0 0
6273 1 3100.0 8.06515909658822e-06 0.014520037594381797 0.005140063365246721 0.013328673767518886 0 0 0
6274 1 3100.0 9.010502446385468e-05 0.0195482417065256 0.006699637187409096 0.008819159594297904 0 0 0
6275 1 3100.0 7.93649394280387e-05 0.007056951455577194 0.009007565481638976 0.01128436073354563 0 0 0
6276 1 3100.0 6.571265071094368e-06 0.01723739461001965 0.008759020120919907 0.012655040737074538 0 0 0
6277 1 3100.0 0.00014783841597441286 0.018780723094941224 0.018560347917984606 0.019160882000392405 0 0 0
6278 1 3100.0 7.22332612607231e-05 0.004284598905317416 0.01841243896899368 0.0014436373774298484 0 0 0
6279 1 3100.0 8.423470732942868e-05 0.015592313253311098 0.00909665158795509 0.002127847455260775 0 0 0
6280 1 3100.0 9.759220460945673e-05 0.017769040579842153 0.005858595648155138 0.00787697330348076 0 0 0
6281 1 3100.0 7.3148743738488e-05 0.012722583072161042 0.017975157357241808 0.01895582382456408 0 0 0
6282 1 3100.0 9.22253691222468e-05 0.004159420319755961 0.01567598342409029 0.007213692594770041 0 0 0
6283 1 3100.0 0.00016111169496798886 0.012695585677304324 0.0068383433984148595 0.011142961913313994 0 0 0
6284 1 3100.0 4e-05 0.016301305854759387 0.0021669439516460334 0.013535250394756825 0 0 0
6285 1 3100.0 7.262557831102249e-05 0.00811288029317494 0.017830724475472917 0.0037985641802537377 0 0 0
6286 1 3100.0 1.6050662828261103e-05 0.0035406171689595354 0.019503182608733714 0.01085701824207281 0 0 0
6287 1 3100.0 0.00010946513302055485 0.006143919767448818 0.00692587486238293 0.01936142559488655 0 0 0
6288 1 3100.0 1.896778155062333e-05 0.00026524881656174486 0.01314207957110252 0.015232856286872229 0 0 0
6289 1 3100.0 7.618356213825687e-05 0.0015878025304487183 0.01944133042077023 0.011049272674521667 0 0 0
6290 1 3100.0 7.264936395557419e-05 0.012632937569052963 0.01971649712597783 0.0005939113941522832 0 0 0
6291 1 3100.0 3.6596291577167075e-06 0.00472227755714096 0.005913998594047789 0.006330413243819749 0 0 0
6292 1 3100.0 1.081716241332133e-05 0.006339939610076524 0.0038082184223239275 2.4345196574813696e-05 0 0 0
6293 1 3100.0 8.622750287408157e-05 0.0026316201689226136 0.002934882541675091 0.0014578906078009067 0 0 0
6294 1 3100.0 2.9165154487637286e-06 0.01528348571165497 0.017170642563479176 0.00033300368948658546 0 0 0
6295 1 3100.0 5.8631088625189213e-05 0.01430653172398265 0.004981535653059404 0.012330746109780992 0 0 0
6296 1 3100.0 6.581146256699307e-05 0.006859893351861953 0.012312693971614224 0.010498694099473056 0 0 0
6297 1 3100.0 9.007197817505606e-05 0.004527743844677632 0.017764779711283964 0.0007872742269723386 0 0 0
6298 1 3100.0 6.546618848261107e-05 0.0075994930261517775 0.012498421701540427 0.005721486298940137 0 0 0
6299 1 3100.0 7.470126780585985e-05 0.007269321284618729 0.007951106191092364 0.009791103652695431 0 0 0
6300 1 3100.0 4.1437313564196353e-05 0.014022321348120202 0.0012324223822150245 0.01938843854331359 0 0 0
6301 1 3100.0 4.7248405111156906e-05 0.012150819799364353 0.011067723553389744 0.007766170933349739 0 0 0
6302 1 3100.0 0.00011779612881361843 0.013687475795855879 0.007675532473753319 0.004014731864447762 0 0 0
6303 1 3100.0 0.00010720198159089031 0.002164210421047195 0.01979755907992345 0.014505924462031314 0 0 0
6304 1 3100.0 1.3830387388688278e-05 0.007638846876984075 0.01133356931506495 0.006044314327010108 0 0 0
6305 1 3100.0 8.444904944503214e-05 0.000664559131190564 0.013860302398194487 0.005099727484980409 0 0 0
6306 1 3100.0 7.835273112092254e-05 0.015999475882956315 0.014735900709679443 0.0028276478184775453 0 0 0
6307 1 3100.0 0.0001355426081409496 0.015714460748948705 0.016417708387400514 0.0021744967207705467 0 0 0
6308 1 3100.0 4.7546344958729254e-05 0.014563339679519737 0.013610287549167262 0.012581702070724336 0 0 0
6309 1 3100.0 6.504159136327903e-05 0.00892420627424389 0.01703024975970831 0.017086987443493754 0 0 0
6310 1 3100.0 0.00016423024938858885 0.006064584761940967 0.007902288837175924 0.0009032209879120021 0 0 0
6311 1 3100.0 0.00012124165256426055 0.003057383345182186 0.018424478019944464 0.007101055776769008 0 0 0
6312 1 3100.0 8.474503581077178e-06 0.019010693049906425 0.012578400551128889 0.006620312740541466 0 0 0
6313 1 3100.0 0.0001342283755310004 0.013708207726596647 0.008015819701906672 0.015879370586595422 0 0 0
6314 1 3100.0 4.964852607191125e-06 0.0024479998840367893 0.004975088342417563 0.01685745321432839 0 0 0
6315 1 3100.0 7.462304530859786e-05 0.014943859384515158 0.00022366030506964195 0.014677538102285597 0 0 0
6316 1 3100.0 6.47555108629432e-05 0.00935676066243922 0.0017084743068224576 0.01495665656246884 0 0 0
6317 1 3100.0 5.446657007149104e-05 0.019281997987115516 0.012804574866222074 0.0168045754089207 0 0 0
6318 1 3100.0 3.3478289782423614e-06 0.014978576114039879 0.015885508360498884 0.013135347347586625 0 0 0
6319 1 3100.0 1.7963070203516595e-05 0.018352846801943486 0.009894009719797375 0.0108209588030393 0 0 0
6320 1 3100.0 7.980714034187866e-06 0.009858271969297696 0.002691387102590904 0.014371826963443786 0 0 0
6321 1 3100.0 0.0001119291737387704 0.008468890404073849 0.01779002802649419 0.00038493284515772315 0 0 0
6322 1 3100.0 1.8927898914490594e-05 0.0034012241429208475 0.001812682176353483 0.0001710958989754686 0 0 0
6323 1 3100.0 8.84474303557942e-05 0.008809141673537512 0.007996120758578956 0.010196749288677332 0 0 0
6324 1 3100.0 1.9095502824626397e-05 0.005824301336188146 0.0035563837193192736 0.010303850572586648 0 0 0
6325 1 3100.0 6.382006368688693e-06 0.009003304112677456 0.019108728030844603 0.015306105066482473 0 0 0
6326 1 3100.0 3e-05 0.00386698469495011 0.0004972679020768299 0.0036929520732467322 0 0 0
6327 1 3100.0 8.69575409749861e-05 0.015425034932159028 0.00032289422868581334 0.004151649343851162 0 0 0
6328 1 3100.0 7.392520266173358e-05 0.019348929972848414 0.006248091656528108 0.015146519060223806 0 0 0
6329 1 3100.0 2.3859591747157744e-05 0.012067612936436297 0.0006230289748870981 0.012813456383968387 0 0 0
6330 1 3100.0 8.230814368159297e-06 0.014473020589126825 0.018554883622693044 0.01006141404250578 0 0 0
6331 1 3100.0 5.697975125008938e-05 0.007374419281887256 0.010265143250923066 0.006995903695966143 0 0 0
6332 1 3100.0 0.00014346486292182928 0.01802395755894928 0.012950778203766394 0.019484312417622645 0 0 0
6333 1 3100.0 4e-05 0.014622025883953883 0.005677612844071437 0.011358907213309566 0 0 0
6334 1 3100.0 0.00010688549805131288 0.009415307254487394 0.012969138317129503 0.0038510398911328673 0 0 0
6335 1 3100.0 6.206758438876698e-06 0.019827926512353464 0.008171920688427039 0.015914120961042298 0 0 0
6336 1 3100.0 7.129505277167209e-06 0.007975719859800081 0.017041446667559763 0.0030038881853944647 0 0 0
6337 1 3100.0 8.166870761269526e-06 0.017573205353444622 0.0038670773346968002 0.005686822723108453 0 0 0
6338 1 3100.0 8.447540020251812e-06 0.006840036178762731 0.019171223440502656 0.016111898837675196 0 0 0
6339 1 3100.0 9.044225556208388e-05 0.008521701229105822 0.00543717167094584 0.013372401060813667 0 0 0
6340 1 3100.0 1.3306240908115769e-05 0.01707037250168149 0.003901915336684131 0.008939470470539751 0 0 0
6341 1 3100.0 2.0183604068124927e-05 0.0018945953299753587 0.018010193280544734 0.015421165132893913 0 0 0
6342 1 3100.0 5.753323197863274e-06 0.01615390413067373 0.009479001976974795 0.009827440203883936 0 0 0
6343 1 3100.0 1.7402449923533485e-05 0.0042636156598197085 0.01945234982741367 0.008960397945440188 0 0 0
6344 1 3100.0 4e-05 0.006639393855882928 0.016820480915333225 0.0010826552982064787 0 0 0
6345 1 3100.0 8.590720908531101e-05 0.013312985380850304 0.013289169741993057 0.009421214603401378 0 0 0
6346 1 3100.0 1.6868862754549868e-05 0.008188748781362304 0.004857496073749352 0.0181565027065061 0 0 0
6347 1 3100.0 9.482510787293679e-06 0.008711346279443786 0.005699358444805894 0.0025656089239903903 0 0 0
6348 1 3100.0 7.408278686336966e-06 0.01942622732565388 0.012157669909352827 0.01581114790949019 0 0 0
6349 1 3100.0 9.290868833761652e-05 0.012118111499328503 0.013641330896139245 0.010416841350228922 0 0 0
6350 1 3100.0 0.00014700030558958063 0.018602766374115003 0.01888839515484815 0.015019673944289828 0 0 0
6351 1 3100.0 0.00015643023015837098 0.0028842975572340437 0.016361285332397973 0.01983533306040272 0 0 0
6352 1 3100.0 0.00011086597137915137 0.006018121277461717 0.018514015915807223 0.010741532592750649 0 0 0
6353 1 3100.0 7.0764056858805305e-06 0.000618426710343357 0.019337347571105716 0.005612616787564221 0 0 0
6354 1 3100.0 0.0001541710751825981 0.004328272159558973 0.016861982312784532 0.006978833271009356 0 0 0
6355 1 3100.0 1.8262558959681823e-05 0.010249674236536242 0.0064229344788263925 0.01337428498693487 0 0 0
6356 1 3100.0 0.0001292815635228685 0.006362913393658622 0.012160597291589593 0.01231558235484677 0 0 0
6357 1 3100.0 2.4439644999171902e-05 0.017770328211042064 0.013189894421700758 0.012325731462369623 0 0 0
6358 1 3100.0 6.463414884563945e-05 0.015165515191484846 0.004575158337836316 0.0036516390846271177 0 0 0
6359 1 3100.0 0.0001539472460153034 0.01919196738454763 0.015423699817857218 0.01025073025011064 0 0 0
6360 1 3100.0 4.934951678974885e-05 0.018867329325445367 0.016781873265515116 0.011979037416004576 0 0 0
6361 1 3100.0 3.3630689363736525e-06 0.005648149946102072 0.0011223486527299122 0.00814272130535959 0 0 0
6362 1 3100.0 2.7118260667523933e-05 0.003085297403542787 0.0031522558679315305 0.013555507640897338 0 0 0
6363 1 3100.0 3e-05 0.009596807214196729 0.012465703822203892 0.0019224997593680377 0 0 0
6364 1 3100.0 7.308039344119129e-05 0.0176852526202464 0.007000304173805983 0.0054489596081174554 0 0 0
6365 1 3100.0 8.063072300616947e-06 0.003398071565386053 0.01936317202069529 0.0033021284185678922 0 0 0
6366 1 3100.0 5.99462802645215e-05 0.011614110896895576 0.0006723078687872374 0.015542926909357649 0 0 0
6367 1 3100.0 7.841787087508893e-06 0.016082092399611624 0.009903207706475289 0.016669287647278274 0 0 0
6368 1 3100.0 4.161302252482622e-05 0.016325794110508045 0.0027272198783581986 0.001831202417929083 0 0 0
6369 1 3100.0 6.778781179557124e-05 0.013595442377348613 0.0008434183612914212 0.018072650922967223 0 0 0
6370 1 3100.0 0.00010142730757743236 0.015613878657905563 0.019321328080000335 0.0018297601390076161 0 0 0
6371 1 3100.0 0.00010591727456262904 0.01894619890085705 0.003611591569707949 0.0017060437974754364 0 0 0
6372 1 3100.0 5.9225497195019086e-05 0.009197979141489255 0.009479346347574075 0.016183813899273716 0 0 0
6373 1 3100.0 1.4629104160732445e-05 0.003602448165130085 0.006876681106732412 0.012234536644728294 0 0 0
6374 1 3100.0 1.7615985538599633e-05 0.008548317450993664 0.0037058932574246515 0.018588581431344852 0 0 0
6375 1 3100.0 6.784074769761395e-05 0.0012013527935663753 0.004551631355257285 0.006866872529865979 0 0 0
6376 1 3100.0 0.00011224115703429588 0.013296616734911813 0.010784484438035005 0.01984761450349241 0 0 0
6377 1 3100.0 1.2309123423021449e-05 0.011828595558569056 0.009925965211083788 0.003366328425716317 0 0 0
6378 1 3100.0 8.733288330027156e-06 0.007157285291302426 0.0004342652068367862 0.013798490246718656 0 0 0
6379 1 3100.0 7.918094855075156e-05 0.01797963843525054 0.016358236064420544 0.019860032516521957 0 0 0
6380 1 3100.0 4e-05 0.01658442539929464 0.015171813353030757 0.000814484221021037 0 0 0
6381 1 3100.0 7.959720955755414e-06 0.016398383021016247 0.016804487974712227 0.01232801494534266 0 0 0
6382 1 3100.0 7.90660746519834e-05 0.01114694683761272 0.01585026301890024 0.011124130644019452 0 0 0
6383 1 3100.0 8.044264530455066e-06 0.003812208638228091 0.002354239076723257 0.0004962484796276515 0 0 0
6384 1 3100.0 7.931852794204478e-05 0.005825151041273851 0.004398618799528138 0.009591194133301648 0 0 0
6385 1 3100.0 1.3811315405715306e-05 0.016331627635460956 0.01528346288053481 0.012599436716327916 0 0 0
6386 1 3100.0 5.788325596785751e-06 0.015467819574388069 0.014232304598978193 0.013773033051044499 0 0 0
6387 1 3100.0 0.0001592568661955724 0.011329220516188683 0.015838268513189657 0.006938582290891367 0 0 0
6388 1 3100.0 1.2848594858909018e-05 0.014883729888901551 0.003162759123638042 0.008417399001389594 0 0 0
6389 1 3100.0 0.00012235573060179265 0.014537002713153417 0.0006585217584537972 0.006586073086588004 0 0 0
6390 1 3100.0 4.480704916043529e-05 0.011592170992476291 0.015800613563686013 0.01780631805280249 0 0 0
6391 1 3100.0 5.038044971045258e-05 0.016401093669449727 0.009726811133670925 0.018177462556059187 0 0 0
6392 1 3100.0 1.2057338257045288e-05 0.01971091616177266 0.0040880165228215255 0.01239445513323519 0 0 0
6393 1 3100.0 0.00015481661004201224 0.009362015684703545 0.014207632364979345 0.012868231107433238 0 0 0
6394 1 3100.0 0.0002150322287326704 0.004208873000891713 0.006062886808204191 0.016370494942680742 0 0 0
6395 1 3100.0 0.00013511759098550373 0.017911477380665133 0.0006074901666893607 0.016279902349679718 0 0 0
6396 1 3100.0 6.407848419838537e-05 0.013918091603117518 0.012440269317435842 0.01993557659962736 0 0 0
6397 1 3100.0 4e-05 0.0035876933978672395 0.0003196324903827281 0.006143418065023715 0 0 0
6398 1 3100.0 0.00012987450854297217 0.005635751101738545 0.003234910417613076 0.017200130063674778 0 0 0
6399 1 3100.0 2.2874279939256036e-05 0.010090016484529838 0.008073753496914441 0.013580300654062735 0 0 0
6400 1 3100.0 0.00015989389122634737 0.010275503701047206 0.01792674394765317 0.008255185078346796 0 0 0
6401 1 3100.0 7.223789309076329e-06 0.01715744489031996 0.002483935348921669 0.01996753478062998 0 0 0
6402 1 3100.0 9.062433801441694e-05 0.012344071158609917 0.014580034038792539 0.0007908854262743065 0 0 0
6403 1 3100.0 6.270331302423564e-06 0.010233878117145384 0.005819338219943936 0.008904555091763881 0 0 0
6404 1 3100.0 4.1522803746442536e-05 0.007137453805597317 0.0028086619107557673 0.009275893646024483 0 0 0
6405 1 3100.0 0.00014612674143657498 0.004476938091202192 0.012708259112825691 0.010889912341722926 0 0 0
6406 1 3100.0 6.142607417770749e-05 0.008616153941168707 0.015585709508636268 0.008578629640391355 0 0 0
6407 1 3100.0 6.956686828438081e-05 0.019928821298575133 0.0049151002903274135 0.008008088368128679 0 0 0
6408 1 3100.0 4.965854636624616e-05 0.01917173298404832 0.006657769807621011 0.01787138641159693 0 0 0
6409 1 3100.0 8.146236692794335e-05 0.006084530420549229 0.01720272530938147 0.010825381444696365 0 0 0
6410 1 3100.0 0.00015342174687372817 0.01633769034563026 0.003966194084892146 0.009287438323862564 0 0 0
6411 1 3100.0 1.7180951540024774e-05 0.016305283799793558 0.002736669754333081 0.005563817103474967 0 0 0
6412 1 3100.0 9.400288218316792e-05 0.0052413312510690745 0.014101623885940842 0.009359929562697536 0 0 0
6413 1 3100.0 5.368505272573629e-06 0.013128083024351452 0.019268788353956335 0.014257292039158547 0 0 0
6414 1 3100.0 1.8591821437202647e-05 0.01065010104563648 0.01668044149057928 0.011567335840164101 0 0 0
6415 1 3100.0 5.67238107531734e-06 0.005862247556050517 0.006301140873955348 0.005718243778167495 0 0 0
6416 1 3100.0 2.3472637231469474e-05 0.007560227439310613 0.016323146266490188 0.001426491865877335 0 0 0
6417 1 3100.0 4.889007423058802e-05 0.006103234744993126 0.00974683231637805 0.00918565508486409 0 0 0
6418 1 3100.0 9.165016472868634e-05 0.008630197513779213 0.01971612570095502 0.003914300769035835 0 0 0
6419 1 3100.0 8.029611993939628e-06 0.013479619592240668 0.009271622266893643 0.018018357341163412 0 0 0
6420 1 3100.0 0.0001772928704629993 0.0056672599750077855 0.009709908300656373 0.013123508298972476 0 0 0
6421 1 3100.0 1.2565024379606069e-05 0.016732318052824907 0.01026439058975579 0.012487684208063898 0 0 0
6422 1 3100.0 7.312014361633229e-05 0.011497023108021415 0.015356418531517136 0.006119604305723513 0 0 0
6423 1 3100.0 0.0001062982067904366 0.004936909163730339 0.018293861097939363 0.004202473225789974 0 0 0
6424 2 7870.0 0.0003 0.011073157067368476 0.01370747430679624 0.009267665191624565 0 0 0
6425 1 3100.0 5.136686444834248e-06 0.004663842829206037 0.01939559815998569 0.015778437476865942 0 0 0
6426 1 3100.0 0.00010086220568722577 0.006505957124030521 0.0013523421938212159 0.01779155394537306 0 0 0
6427 1 3100.0 0.00013407631911763917 0.0008383885756517908 0.005378504975724416 0.006322454455133852 0 0 0
6428 1 3100.0 3e-05 0.019833539629429204 0.01923484902622257 0.008444781556182947 0 0 0
6429 1 3100.0 7.835295453897623e-06 0.014780446878717046 0.000589208409749342 0.012357419035362097 0 0 0
6430 1 3100.0 7.402924751337829e-05 0.00014805248364378097 0.00012713821686632603 0.0021862862553843404 0 0 0
6431 1 3100.0 0.00011546508099652286 0.01629594550877635 0.0004815645713009757 0.017147022024073654 0 0 0
6432 1 3100.0 9.555116033499472e-06 0.0037966226231343305 0.006231654434191797 0.010479104799671212 0 0 0
6433 1 3100.0 1.1563072224503675e-05 0.0011285393515677218 0.006755830413207659 0.01748416172151371 0 0 0
6434 1 3100.0 0.0001765630336312314 0.0024090505671202065 0.010245491077882122 0.009854430603437044 0 0 0
6435 1 3100.0 4.104364313578177e-05 0.0003264904415593406 0.005743581333411996 0.019026424621721525 0 0 0
6436 1 3100.0 1.1309691319206014e-05 0.017456414022655867 0.0026977305841039325 0.00037426084760664596 0 0 0
6437 1 3100.0 0.00011024348516308357 0.0005483976813137293 0.0009244095472907508 0.014823887203742246 0 0 0
6438 1 3100.0 7.126481610912047e-05 0.017319214367287263 0.015254851754177004 0.012657555319982644 0 0 0
6439 1 3100.0 0.000241782224898316 0.012267333383291485 0.018145605073905672 0.004759195168857295 0 0 0
6440 1 3100.0 7.377145285875341e-05 0.013815586760334075 0.015579610395899088 0.004177039284773914 0 0 0
6441 1 3100.0 5.1623886770572713e-05 0.017690733675258773 0.014928036544318006 0.008823141484501173 0 0 0
6442 1 3100.0 0.00011200236415166347 0.017724909056604888 0.016203937985100707 0.016753811762876273 0 0 0
6443 1 3100.0 5.543449045144293e-05 0.013113503021091906 0.002895197398293589 0.018991523860782778 0 0 0
6444 1 3100.0 7.442965689611201e-05 0.0034951626980878406 0.009718670848543234 0.011125028395460274 0 0 0
6445 1 3100.0 4.2735355719012904e-05 0.01783847824485394 0.0033054889541574367 0.01474950206791646 0 0 0
6446 1 3100.0 1.0252150667808751e-05 0.013635294404394155 0.0001274386881705406 0.01807215637383609 0 0 0
6447 1 3100.0 6.910456798266876e-05 0.017903469987791392 0.011418604102432735 0.001346458525565084 0 0 0
6448 1 3100.0 0.00020378084483898767 0.015615810278769364 0.007970144239338353 0.008586578532948898 0 0 0
6449 1 3100.0 0.0001232198830506934 0.015610096476073294 0.008585510226569556 0.015045062662292956 0 0 0
6450 1 3100.0 9.933467443526073e-05 0.0139764375595337 0.005919122516909645 0.011981502322145494 0 0 0
6451 1 3100.0 2.5038572986373768e-05 0.003906574854281694 0.0027889203314376146 0.007993334466906785 0 0 0
6452 1 3100.0 0.00011573233917753986 0.005484827654852302 0.01397115854476167 0.01765169014320805 0 0 0
6453 1 3100.0 0.00010180592910370396 0.003454162454950772 0.008573214283964056 0.017997180253922405 0 0 0
6454 1 3100.0 6.023568238262477e-05 0.01126275080067485 0.013190841331549167 0.012022582633762784 0 0 0
6455 1 3100.0 7.026384370524788e-05 0.0007741693472387595 0.010984600840168807 0.015377349727971012 0 0 0
6456 1 3100.0 5.209338179068594e-05 0.01867621387365847 0.0043386838026514595 0.01010660230911334 0 0 0
6457 1 3100.0 5.4404807627186315e-05 0.001753328072824257 0.010980366032634416 0.016986426642601346 0 0 0
6458 1 3100.0 6.443637977899638e-05 0.012679562269429871 0.0060778776987167795 0.010067373374830001 0 0 0
6459 1 3100.0 7.82825025685044e-05 0.008248373691764887 0.0074613048770693965 0.004698624310824896 0 0 0
6460 1 3100.0 0.0001825431157190829 0.015487490411314154 0.0042768600941974644 0.004541647940431105 0 0 0
6461 1 3100.0 0.0001010764723304149 0.0016080808918285422 0.013940374902719061 0.014144421543401321 0 0 0
6462 1 3100.0 6.259706352279596e-05 0.007186428223430545 0.01463862766791062 0.0027844890007336404 0 0 0
6463 1 3100.0 2.04837345412578e-05 0.009561329529398165 0.017715787752202516 0.0058247197860680985 0 0 0
6464 1 3100.0 6.527683902043522e-06 0.0036400614192019167 0.0041691459123525485 0.016216888281041945 0 0 0
6465 1 3100.0 0.00017266588832347217 0.005601341353998078 0.0074938896805752464 0.019140274643350417 0 0 0
6466 1 3100.0 8.47302636982192e-05 0.001954822752082406 0.011812348360791584 0.0015336166781292177 0 0 0
6467 1 3100.0 0.00020885810168967957 0.004591194724427512 0.0022376722788685867 0.0053296487350681454 0 0 0
6468 1 3100.0 5.395000082323793e-05 0.01046553831886166 0.018769352725284013 0.015523377061457106 0 0 0
6469 1 3100.0 0.00011458877451401071 0.015803565938251777 0.003771939202093357 0.0134693416290544 0 0 0
6470 1 3100.0 8.097464124875588e-05 0.019777927788742464 0.0005479513812634407 0.0032811399442081697 0 0 0
6471 1 3100.0 3e-05 0.015542817035530147 0.006204836792878304 0.018987416685666555 0 0 0
6472 1 3100.0 0.00014826594243209077 0.013361039576864657 0.01362096888006131 0.016568380211183946 0 0 0
6473 1 3100.0 9.720081957310005e-05 0.006684084732820291 0.010574439496555888 0.014217582776675187 0 0 0
6474 1 3100.0 1.0362360683619556e-05 0.009955902801315418 0.0057188091375881996 0.009737791928240485 0 0 0
6475 1 3100.0 8.216097881026639e-06 0.017421943518086982 0.0040308524054203715 0.01486949679206214 0 0 0
6476 1 3100.0 1.431162364066517e-05 0.0146657362268768 0.0024775196100620344 0.014752708420312536 0 0 0
6477 1 3100.0 8.0193534727022e-06 0.008322904122050542 0.009104152417323636 0.0028093856154131113 0 0 0
6478 1 3100.0 3.4843976378695406e-06 0.009431723607969254 0.0028740877913870414 0.0011461113818600687 0 0 0
6479 1 3100.0 4.838374972875814e-05 0.013480183372829616 0.01586822089124574 0.007538561329188434 0 0 0
6480 1 3100.0 8.244974359497009e-05 0.018191658075813057 0.010300161049694397 0.00447285045082907 0 0 0
6481 1 3100.0 7.551184658062354e-06 0.013632859237949593 0.0002055527550154222 0.005229577010008437 0 0 0
6482 1 3100.0 1.4574080801583494e-05 0.01906879033976944 0.01907856652476812 0.008939793969908206 0 0 0
6483 1 3100.0 0.00014016047688374363 0.0072082502370569455 0.015846396673791573 0.009957188492140435 0 0 0
6484 1 3100.0 8.99272911486892e-06 0.0029997743036471822 0.004785504855008998 0.000506675068619604 0 0 0
6485 1 3100.0 7.787230559452386e-05 0.005141103108043547 0.004237585070461116 0.002048665117155181 0 0 0
6486 1 3100.0 6.401659085598567e-05 0.01750188209168112 0.008903801337223245 0.006792341092541504 0 0 0
6487 1 3100.0 9.613926631705292e-05 0.0028801461211000853 0.001282365930582006 0.016756877403992666 0 0 0
6488 1 3100.0 0.00017653001558844088 0.00642570068871946 0.0174718828219137 0.0111548661341997 0 0 0
6489 1 3100.0 0.00019596320534541242 0.011206339459135075 0.017585582718057706 0.013261730316164245 0 0 0
6490 1 3100.0 0.00011965466648784121 0.014538157046146633 0.016071889091020263 0.01747088771548916 0 0 0
6491 1 3100.0 4.6550762834111464e-05 0.014004089729318188 0.01693849049220256 0.012120187058475708 0 0 0
6492 1 3100.0 3e-05 0.018121199658974317 0.019710274691178475 0.008774508889018122 0 0 0
6493 1 3100.0 1.7665748411947824e-05 0.009945214152869199 0.015970053107465174 0.014542137155840615 0 0 0
6494 1 3100.0 5.494280469536883e-06 0.018739171185683034 0.004265013750415138 0.00013211761407887055 0 0 0
6495 1 3100.0 7.914353523391171e-05 0.0011100037071764387 0.004904889476009996 0.004733201907244005 0 0 0
6496 1 3100.0 3e-05 0.0002509234893216902 0.011097747129888308 0.012960712344931085 0 0 0
6497 1 3100.0 7.703890428234917e-05 0.009208655510703169 0.006153025223260563 0.007475780959759267 0 0 0
6498 1 3100.0 0.00017802787786300834 0.0013586218835409847 0.014033359048740441 0.0006461798628552029 0 0 0
6499 1 3100.0 7.138964398006806e-05 0.01885424966580176 0.004170745276636403 0.013321260744706 0 0 0
6500 1 3100.0 2.729738158765743e-05 0.014320659051553802 0.011758432115613974 0.012144745938992804 0 0 0
6501 1 3100.0 7.514274659112434e-05 0.017919654568406225 0.008736005175876436 0.0015178505633926273 0 0 0
6502 1 3100.0 1.2076760409789324e-05 0.0021684676978903526 0.007380341066273512 0.011549598801345456 0 0 0
6503 1 3100.0 8.474246936335975e-06 0.0007499282660921317 0.014053108774888847 0.0036687418780772516 0 0 0
6504 1 3100.0 4e-05 0.0024467844645131723 0.016994054584694177 0.012846424294499944 0 0 0
6505 1 3100.0 0.00014561111907360658 0.002225866392782769 0.019272968461410283 0.018789794056844004 0 0 0
6506 1 3100.0 5.670927945238891e-05 0.002161253984602206 0.013218550180242152 0.0018129961026239214 0 0 0
6507 1 3100.0 0.00014544963926815295 0.013513394899965116 0.003988915629911816 0.002747863772317374 0 0 0
6508 1 3100.0 7.609691113176593e-05 0.018430178447013463 0.007545639140925114 0.009366330029283138 0 0 0
6509 1 3100.0 9.834818940649938e-05 0.017541093885398474 0.004353268289051891 0.010690124874944073 0 0 0
6510 1 3100.0 1.024984851628781e-05 0.004087964926680376 0.014552243326058032 0.019615791131529312 0 0 0
6511 1 3100.0 7.017936572258758e-05 0.012071053868084268 0.004740005936006103 0.017452026173005397 0 0 0
6512 1 3100.0 2.325373191502717e-05 0.011190337784580798 0.004812270723515073 0.0102301116476421 0 0 0
6513 1 3100.0 8.777098708671442e-05 0.0009831134198647706 0.00195513108758761 0.01189338825843194 0 0 0
6514 1 3100.0 0.00011853398820735519 0.009471113903667297 0.006509202395621085 0.010604938529974507 0 0 0
6515 1 3100.0 0.00010227496712165392 0.01786843161846927 0.0104519349495497 0.01783927881237151 0 0 0
6516 1 3100.0 3e-05 0.006087051813264698 0.007547555883198852 0.011362214484477415 0 0 0
6517 1 3100.0 3e-05 0.018718537450728635 0.007099728971533364 0.015169367453722384 0 0 0
6518 1 3100.0 9.328356199151175e-05 0.003781108434764278 0.002637598590109636 0.006087011230849091 0 0 0
6519 1 3100.0 0.00011949866545595935 0.0154578107262418 0.010111274981039954 0.0016980140121589163 0 0 0
6520 1 3100.0 0.00014786025515046942 0.0016791195240045027 0.00044158384450387927 0.012578662505161242 0 0 0
6521 1 3100.0 7.488151590461377e-06 0.0023457351123112205 0.010568066324379764 0.008620796211914996 0 0 0
6522 1 3100.0 7.222307940181579e-05 0.015327242716512503 0.01867025130158461 0.017409942577952142 0 0 0
6523 1 3100.0 0.00015033361774177 0.010085027158697635 0.011945472288695077 0.002726871952011272 0 0 0
6524 1 3100.0 3e-05 0.004144007914469392 0.004769208204963193 0.017852685799203658 0 0 0
6525 1 3100.0 1.1592653055562913e-05 0.005911320869375727 0.005550132732008894 0.01892941831176901 0 0 0
6526 1 3100.0 6.483811550766573e-05 0.002824565238554438 0.016161007067858366 0.018665232782199673 0 0 0
6527 1 3100.0 1.037919685800382e-05 0.007278146336079548 0.016100411022549825 0.0003275241953912914 0 0 0
6528 1 3100.0 0.00011217353367986324 0.01140100333249411 0.015034402092451842 0.011682842703313706 0 0 0
6529 1 3100.0 1.6758525360277015e-05 0.013530544449508047 0.018038394501221574 0.0028232700951684717 0 0 0
6530 1 3100.0 0.00012196842498661496 0.0026650113160021876 0.009443001185599058 0.004232758246454041 0 0 0
6531 1 3100.0 0.00012112961104341336 0.014187582200829765 0.01621575654737414 0.002343445087132007 0 0 0
6532 1 3100.0 5.9287031876605295e-05 0.0037662161007693843 0.00939485525850891 0.014787181546100652 0 0 0
6533 1 3100.0 1.8868212645873467e-05 0.019941399027695705 0.009902657138288364 0.00640274918855854 0 0 0
6534 1 3100.0 8.282350099869806e-06 0.000998709885492793 0.0014694424268452038 0.005707939354054149 0 0 0
6535 1 3100.0 0.00018327825508315137 0.0021608587920628284 0.01737377268774152 0.012671366978945922 0 0 0
6536 1 3100.0 8.092717864753312e-05 0.013361342834852871 0.0095064713604555 0.007480654895312086 0 0 0
6537 1 3100.0 1.4441584634829786e-05 0.0030234887714494577 0.007519115845426579 0.004021892942193577 0 0 0
6538 1 3100.0 0.00010241778827386051 0.014566721668648332 0.0014787651244899354 0.018491404909563344 0 0 0
6539 1 3100.0 5.1962458826631e-06 0.007314991575084846 0.00910504268357395 0.018379922711863932 0 0 0
6540 1 3100.0 6.961296212020943e-05 0.013761249104726737 0.011339132645772125 0.0012310760696911556 0 0 0
6541 1 3100.0 0.00015123573108627347 0.01514623179259925 0.013537403135477005 0.00973673249272528 0 0 0
6542 1 3100.0 9.428838312514924e-05 0.005758331106760937 0.004010382989708466 0.009508628068325652 0 0 0
6543 1 3100.0 1.5271302850189774e-05 0.019513156057795397 0.011294459603516783 0.009775062928035013 0 0 0
6544 1 3100.0 7.852629995539379e-05 0.0005084769830966303 0.00911242065951732 0.0005401154004809859 0 0 0
6545 1 3100.0 0.00013738262982534313 0.0141580269474109 0.008391136912075966 0.006593901695681368 0 0 0
6546 1 3100.0 4.511106068784139e-06 0.010442392632514837 0.0069798133379224015 0.00274502960760895 0 0 0
6547 1 3100.0 0.0001349395004741896 0.016686769314928036 0.013213698958922424 0.002266387202715769 0 0 0
6548 1 3100.0 0.0001194329716386779 0.008285703067316023 0.004120270179927713 0.01874116384494185 0 0 0
6549 1 3100.0 5.456968595532284e-05 0.0015856615275709432 0.0007390324043202833 0.019118890612080906 0 0 0
6550 1 3100.0 0.00014896795379780816 0.004930608486453532 0.014663558493271032 0.014929176624863375 0 0 0
6551 1 3100.0 0.00020379224292788178 0.0023772538916318675 0.003723649131592751 0.01602448444125735 0 0 0
6552 1 3100.0 0.00010524257809682091 0.006476757201911288 0.01975200635748863 0.0050776282672563644 0 0 0
6553 1 3100.0 1.1599794131910874e-05 0.0027211500756692012 0.01202299699985113 0.004942409637472632 0 0 0
6554 1 3100.0 8.604110814178386e-06 0.012560589885557739 0.011242442524771665 0.01658410734811558 0 0 0
6555 1 3100.0 1.8476547452305664e-05 0.01807854299972901 0.017141278919651712 0.0025229002527492406 0 0 0
6556 1 3100.0 1.2738993643447249e-05 0.003930264722175868 0.0007207281249723487 0.01120141288453106 0 0 0
6557 1 3100.0 0.00020401368407688063 0.007124697218209638 0.019698139286652885 0.018130588151246102 0 0 0
6558 1 3100.0 2.1730819812081062e-05 0.004632965161861362 0.017198161701072624 0.016026563909212362 0 0 0
6559 1 3100.0 1.6058558680393835e-05 0.0027685168481349806 0.019037018466953284 0.012582050174824002 0 0 0
6560 1 3100.0 8.631733560433665e-05 0.012827056667947853 0.018012175283661214 0.003644029477433275 0 0 0
6561 1 3100.0 0.0001237591317623686 0.010649560307121539 0.00033067318786378483 0.005193345811063163 0 0 0
6562 1 3100.0 6.527246022749349e-05 0.014425487672094672 0.008425308216304161 0.01781880570555701 0 0 0
6563 1 3100.0 8.521386633458172e-05 0.01278773372585294 0.003378740417388766 0.013075181304852124 0 0 0
6564 1 3100.0 3.2666545566955427e-06 0.0131683972347692 0.015576789603076163 0.013776761160851343 0 0 0
6565 1 3100.0 7.432581195851307e-05 0.015530696324625913 0.01704043021536193 0.00131514360809755 0 0 0
6566 1 3100.0 8.05715829644019e-05 0.013171553593897774 0.005938851238584424 0.003582787627133302 0 0 0
6567 1 3100.0 6.83299844911527e-05 0.014386755884862538 0.013177829731813336 0.016637169389280507 0 0 0
6568 1 3100.0 1.4493093445642696e-05 0.005748581678994192 0.015326528670388818 0.002461958795229628 0 0 0
6569 1 3100.0 8.459402340051117e-05 0.011077080910076552 0.003902961615390743 0.017842766827106418 0 0 0
6570 1 3100.0 5.344181954213547e-05 0.008400554381662286 0.00593293329559319 0.004158164049938504 0 0 0
6571 1 3100.0 9.221825391140006e-05 0.006141014693413643 0.0028018147922066958 0.008429671146785703 0 0 0
6572 1 3100.0 9.662154301498936e-05 0.000963080827393962 0.01123390256456858 0.008335823083835396 0 0 0
6573 1 3100.0 4e-05 0.003662537946232198 0.001955992299919859 0.012901997960832247 0 0 0
6574 1 3100.0 0.00020611691673845083 0.019407566354206846 0.018579449642701834 0.01814539953393059 0 0 0
6575 1 3100.0 5.753987488582462e-05 0.014687262392073772 0.0012153999703220064 0.011904496158191216 0 0 0
6576 1 3100.0 8.143586512465476e-05 0.005915562237074991 0.0031952561172023724 0.0088091352437264 0 0 0
6577 1 3100.0 6.323507073159057e-05 0.0001757951531628367 0.010875901158605476 0.015875376733128523 0 0 0
6578 1 3100.0 5.009708804747933e-06 0.002704017681665141 0.0002829206640235859 0.014639849477651082 0 0 0
6579 1 3100.0 3e-05 0.01887010004452358 0.015089134491401644 0.01938384512216258 0 0 0
6580 1 3100.0 6.953463284004339e-06 0.006488705388708132 0.01415659899240222 0.009365909487630565 0 0 0
6581 1 3100.0 7.79707340638902e-05 0.01017573862569128 0.0011489588936082176 0.014028776643307416 0 0 0
6582 1 3100.0 9.741421455203831e-06 0.012829319157343954 0.015868036906011858 0.013090742401461936 0 0 0
6583 1 3100.0 1.6905802851762056e-05 0.017543807191790016 0.009086220230203593 0.002103650294018823 0 0 0
6584 1 3100.0 9.83436535999972e-06 0.01324789805612747 0.013201746570968275 0.008657004536740202 0 0 0
6585 1 3100.0 5.951594438211336e-05 0.0018599676919282405 0.007288293614176889 0.018657031983099537 0 0 0
6586 1 3100.0 9.86235161276157e-05 0.0029940051027918728 0.009591602357948325 0.0013691003200504868 0 0 0
6587 1 3100.0 1.592989541019284e-05 0.005992158609828552 0.0005796665841170988 0.0033619681688768486 0 0 0
6588 1 3100.0 3.1325689065833223e-06 0.017216957945814345 0.004593671867837376 0.005715418220202647 0 0 0
6589 1 3100.0 0.00011696427150177523 0.016155468023666214 0.012140478299778141 0.016237141011432733 0 0 0
6590 1 3100.0 3e-05 0.015076396307987124 0.00016482618383518435 0.01970814122033438 0 0 0
6591 1 3100.0 0.0001456816843122418 0.019164327234142478 0.002848813902597131 0.016945403865222492 0 0 0
6592 1 3100.0 1.1793811402295285e-05 0.013923839988061347 0.014749608385794406 0.003698182139135915 0 0 0
6593 1 3100.0 1.0273871890409097e-05 0.011868702065421805 0.015516460460151581 0.014811423137620223 0 0 0
6594 1 3100.0 6.395842659132878e-05 0.01315619844646498 0.010109996678690282 0.016915735829822403 0 0 0
6595 1 3100.0 2.0097539614323586e-05 0.0002540443546974324 0.006282671575992385 0.00391696743089997 0 0 0
6596 1 3100.0 0.00014069326335179892 0.007181749757133522 0.015385602743290282 0.011862890818940205 0 0 0
6597 1 3100.0 7.433353827943659e-05 0.0002725012178707747 0.018083568121704672 0.017560705848501775 0 0 0
6598 1 3100.0 1.524678240210565e-05 0.010484605246547133 0.001976748924612162 0.011042790293655609 0 0 0
6599 1 3100.0 0.00015258116046239223 0.0029511529519744384 0.00397984573977893 0.008437104736208217 0 0 0
6600 1 3100.0 5.308892693322616e-06 0.015063844406703901 0.011842465184781048 0.0006603966124965613 0 0 0
6601 1 3100.0 0.00011509702210285916 0.008185852600497442 0.006267440065570043 0.018408684515627435 0 0 0
6602 1 3100.0 2.1364892676660416e-05 0.011860430258885592 0.01651308215502709 0.01930799397348949 0 0 0
6603 1 3100.0 1.4378999806183689e-05 0.014789233045986793 0.01923491304752124 0.0019550982044564116 0 0 0
6604 1 3100.0 7.263695420465508e-05 0.006121187323312002 0.001791682844605082 0.004327136277639286 0 0 0
6605 1 3100.0 0.00010693892923009097 0.003995446227318152 0.003694108885267584 0.002335879907931352 0 0 0
6606 1 3100.0 8.619315098617495e-06 0.01563726676310938 0.009743207824707235 0.012319845324879303 0 0 0
6607 1 3100.0 0.00010510221925800831 0.006323439258861235 0.011726059855714649 0.01516468802782002 0 0 0
6608 1 3100.0 0.0002617186351938952 0.006487443788142148 0.003567855121533495 0.008099013366747423 0 0 0
6609 1 3100.0 9.377351843300959e-05 0.008401104796633188 0.00898505754264784 0.01826059231862564 0 0 0
6610 1 3100.0 4e-05 0.0034778896620171924 0.001650839316167762 0.014735644114918936 0 0 0
6611 1 3100.0 6.442324434097396e-06 0.014412730318370872 0.007486646220896531 0.006303491704559818 0 0 0
6612 1 3100.0 0.00017651817533694653 0.004064851948428089 0.014868986815244647 0.007291361759561234 0 0 0
6613 1 3100.0 6.62282576861166e-05 0.019892541569280747 0.0016911521510997972 0.006780640491444245 0 0 0
6614 1 3100.0 0.000155910981460411 0.012199924141177824 0.013867427428365428 0.012998438558743402 0 0 0
6615 1 3100.0 1.2753143468153302e-05 0.01337774962353639 0.018506675828063094 0.009511973599888804 0 0 0
6616 1 3100.0 5.81108737599598e-06 0.003413181699710782 0.015223857300061632 0.009460654331712006 0 0 0
6617 1 3100.0 0.00010620046610638562 0.008062514998086166 0.006794115509120483 0.019472851045229812 0 0 0
6618 1 3100.0 6.4601482666932e-05 0.0032134554604174685 0.016306243351713164 0.009699331498401832 0 0 0
6619 1 3100.0 0.00015089760647333072 0.015709264379402996 0.018862227248670132 0.003985594645164441 0 0 0
6620 1 3100.0 0.00013802078369608452 0.01757399168106149 0.0006652102735489533 0.001129185346495613 0 0 0
6621 1 3100.0 0.00013692308263753243 0.011267931847474212 0.007087569083011762 0.01355211084163293 0 0 0
6622 1 3100.0 8.283063313618247e-06 0.018001728355859184 0.006549110323573226 0.0051144561615220924 0 0 0
6623 1 3100.0 0.00013472498667529476 0.00846545449619413 0.007650406594775845 0.011547250730225306 0 0 0
6624 1 3100.0 2.3729314482679304e-05 0.002522917379230969 0.007990824040873588 0.0036873309169870717 0 0 0
6625 1 3100.0 6.002475248896875e-05 0.016254572349052553 0.0019326277992123056 0.01629299028353677 0 0 0
6626 1 3100.0 9.138070736761072e-05 0.019227861229643605 0.012090227641877619 0.012503111223112944 0 0 0
6627 1 3100.0 1.7002624490231975e-05 0.003879424921235202 0.011019943189559976 0.0026279777865385484 0 0 0
6628 1 3100.0 0.00011690941285563607 0.0035401156236005886 0.009925153149831178 0.019207439311353464 0 0 0
6629 1 3100.0 4.144746940455667e-05 0.0019939411497200492 0.0005724189633935497 0.01014436379554875 0 0 0
6630 1 3100.0 0.00014845017332148334 0.0014867878053295017 0.013041621698176069 0.014824218815570677 0 0 0
6631 1 3100.0 2.06234716050597e-05 0.0035362838282878392 0.004265333018493701 0.016338901479628753 0 0 0
6632 1 3100.0 8.72800984870916e-06 0.01661228941156756 0.00019913597393689004 0.009328449499316322 0 0 0
6633 1 3100.0 9.967845848396571e-05 0.011874042343161 0.008385551034642507 0.0006134695235036458 0 0 0
6634 2 7870.0 0.0003 0.0016784361364410962 0.004734114821163208 0.014073375194509493 0 0 0
6635 1 3100.0 1.782570576755238e-05 0.00434402651261083 0.011980913827112267 0.0023175956027356175 0 0 0
6636 1 3100.0 1.025330904316728e-05 0.01619319452805216 0.013416303201166845 0.0032102830986289145 0 0 0
6637 1 3100.0 4.318030970512534e-05 0.0019348453668352832 0.006294555464830755 0.010290014428472903 0 0 0
6638 1 3100.0 0.00013026826274227946 0.011558557796464253 0.013352914786095245 0.0023545497587275505 0 0 0
6639 1 3100.0 6.55836648732452e-05 0.015269987470385485 0.0037085741793906296 0.008796517796710946 0 0 0
6640 1 3100.0 7.739557979602601e-05 0.014051099310726125 0.007607833084636002 0.009623441627825748 0 0 0
6641 1 3100.0 1.1833629014059011e-05 0.008378290122505789 0.011615719699423828 0.01773400771503754 0 0 0
6642 1 3100.0 7.74518310510546e-05 0.0004116408357688408 0.008153530085744739 0.016324047172903616 0 0 0
6643 2 7870.0 0.0003 0.007469867488598956 0.004234833695751113 0.012166684847883386 0 0 0
6644 1 3100.0 0.00010180189492807458 0.010148366727424285 0.016498599177429737 0.010879232015804182 0 0 0
6645 1 3100.0 6.990500677962747e-05 0.0016512282264083905 0.018030921987016158 0.01627261594140527 0 0 0
6646 1 3100.0 6.125206731281674e-06 0.009205833737503872 0.015265565502460415 0.012172103949849584 0 0 0
6647 1 3100.0 9.643865765443166e-06 0.0072785629124837645 0.017883751901997546 0.015168641786450658 0 0 0
6648 1 3100.0 2.7831961923361584e-05 0.01352648235711543 0.008230758471438449 0.01747419584261287 0 0 0
6649 1 3100.0 0.00013482379669136165 0.007859312764480706 0.018386564889041477 0.010126547607875232 0 0 0
6650 1 3100.0 2.5492082305446874e-05 0.01049448572371245 0.008815512023958548 0.009809936473125709 0 0 0
6651 1 3100.0 9.473739141660908e-05 0.010061887605582638 0.018130312451639985 0.0016491592537486452 0 0 0
6652 1 3100.0 1.001872393677614e-05 0.0034152037758747966 0.01380252353480194 0.007911945915815314 0 0 0
6653 1 3100.0 9.981218067362156e-05 0.018315437257060096 0.0034822686058628752 0.013628944099298875 0 0 0
6654 1 3100.0 7.215139999652168e-06 0.0005275887668620643 0.0047726372304572814 0.0077398677978751055 0 0 0
6655 1 3100.0 0.00010909829622020176 0.01713782475625722 0.0017857679277944983 0.015248640579224785 0 0 0
6656 1 3100.0 1.240209430547597e-05 0.015105276538624406 0.019771551537153303 0.005166345554554636 0 0 0
6657 1 3100.0 0.00011585655309989117 0.0039564172966426794 0.01227624643271884 0.019484871971871643 0 0 0
6658 1 3100.0 1.2532880399637273e-05 0.011416253799573384 0.009613173044434266 0.010699380090039866 0 0 0
6659 1 3100.0 7.221254930155818e-05 0.014951615880006035 0.01900136173570074 0.00013003605589566756 0 0 0
6660 1 3100.0 7.085202311756524e-05 0.01566437725317873 0.011085688605667788 0.0023372343623043815 0 0 0
6661 1 3100.0 0.00012242380349388642 0.0019324636607241522 0.006036917512186258 0.009193732641327146 0 0 0
6662 1 3100.0 3e-05 0.005101744642357529 0.005226127041558542 0.013324915244972953 0 0 0
6663 1 3100.0 8.053442139661016e-05 0.0045835843667630435 0.004811041011082242 0.0033415535526861153 0 0 0
6664 1 3100.0 0.00017059669847633517 0.0021177428608525613 0.013477902164178525 0.01308092480104679 0 0 0
6665 1 3100.0 1.88333498538124e-05 0.002449691967755451 0.00043492787191571855 0.018654273072798436 0 0 0
6666 1 3100.0 1.2071740980732317e-05 0.014290646985172252 0.011686213991192967 0.016034436925988466 0 0 0
6667 1 3100.0 8.909728256121193e-06 0.010572761505730237 0.016046832319856274 0.01376788171519868 0 0 0
6668 1 3100.0 0.00010807314617821014 0.00417456840530939 0.006182874910935869 0.018638703276188308 0 0 0
6669 1 3100.0 5.2923868079712776e-05 0.018949869270616326 0.007226168603307216 0.017495307631630343 0 0 0
6670 1 3100.0 7.972829447280242e-05 0.0031631716591793476 0.011511977163133735 0.009460482707376918 0 0 0
6671 1 3100.0 1.106443710662737e-05 0.011049080900680313 0.010923277728630236 0.007770662579502223 0 0 0
6672 1 3100.0 5.3695625342588774e-05 0.007268028810245428 0.013602743466301628 0.012337509407792015 0 0 0
6673 1 3100.0 7.407737157723688e-05 0.0099323115809014 0.015051864768369567 0.00933835747727382 0 0 0
6674 1 3100.0 9.042473910795056e-05 0.01832699689470178 0.0037646147526072095 0.007565915598323228 0 0 0
6675 1 3100.0 7.97270821503603e-05 0.003645073982410831 0.01552232743286364 0.0158716321479916 0 0 0
6676 1 3100.0 4e-05 0.017427180786577283 0.008755455716221223 0.004508731821306768 0 0 0
6677 1 3100.0 0.00019463083747494768 0.010040989022967442 0.007190123794583397 0.013617965519387163 0 0 0
6678 1 3100.0 8.220968084116726e-05 0.01321352673788127 0.01906460782328534 0.008912117783196892 0 0 0
6679 1 3100.0 6.359857076072552e-05 0.008619555219050546 0.0030509839055222723 0.009941623156193275 0 0 0
6680 1 3100.0 4.791494881922322e-05 0.01294771190874753 0.003315929995660947 0.006001360324245126 0 0 0
6681 1 3100.0 6.428944336544084e-06 0.012489144867781528 0.004773916740362917 0.01807938651705403 0 0 0
6682 1 3100.0 8.789708389484264e-05 0.005171092283871117 0.008834864284302893 0.004058259804006191 0 0 0
6683 1 3100.0 2.0281308110067998e-05 0.019662013485810467 0.0041360434962943015 0.019027402647750734 0 0 0
6684 1 3100.0 7.490172895945803e-05 0.013673743820847219 0.014918183074359522 0.015883954779869845 0 0 0
6685 1 3100.0 0.00011367414020445348 0.0015170631237154829 0.008480327880459071 0.017313317174458165 0 0 0
6686 1 3100.0 9.744689947938551e-05 0.007057550944611629 0.016804363623040646 0.008986908069420617 0 0 0
6687 1 3100.0 0.0001360535452419152 0.0014011550673542698 0.010981659274789186 0.006066048245543233 0 0 0
6688 1 3100.0 0.0002140831985699822 0.0013111504000915704 0.006212844241090034 0.011169896898447268 0 0 0
6689 1 3100.0 1.0845948667441612e-05 0.012155881853306473 0.01210334618469067 0.010415154952310737 0 0 0
6690 1 3100.0 0.00013000322600624687 0.015621652881763133 0.019265580894257207 0.009570045503624648 0 0 0
6691 1 3100.0 1.7050384609598897e-05 0.005172360377093062 0.018292528254211907 0.015678906877685007 0 0 0
6692 1 3100.0 8.595390916525624e-05 0.012510585371683005 0.00873460411377069 0.008362501038438386 0 0 0
6693 1 3100.0 4e-05 0.008890444838331794 0.001511962866665913 0.014834381951540193 0 0 0
6694 1 3100.0 0.00016041133385056393 0.0025844628434999223 0.012887702597505093 0.007295822428451067 0 0 0
6695 1 3100.0 0.00011180268053799076 0.011890548249400008 0.012081745742150592 0.008351552886692095 0 0 0
6696 1 3100.0 7.147277346537042e-05 0.005506535361286604 0.008617913126852957 0.005902428184215815 0 0 0
6697 1 3100.0 0.00013997066125435553 0.014306273695985475 0.0007901970164673552 0.015238706552475209 0 0 0
6698 1 3100.0 0.00011197400838798238 0.002361044380865552 0.019792597246529393 0.01318400990903831 0 0 0
6699 1 3100.0 3e-05 0.008229026996068936 0.0042228081233856175 0.015576633816907179 0 0 0
6700 1 3100.0 3.3372241625850484e-06 0.006617560694440652 0.01905006957569789 0.01838663165283981 0 0 0
6701 1 3100.0 6.951105050913945e-05 0.0011224576891829784 0.004659841351378784 0.019667832013864257 0 0 0
6702 1 3100.0 7.4470707444309915e-06 0.005143177283694604 0.008064590808826348 0.01748822285667466 0 0 0
6703 1 3100.0 2.1033354756393417e-05 0.01643641849271002 0.01020840450605729 0.019962924691546022 0 0 0
6704 1 3100.0 3e-05 0.00686814640686422 0.012308925904178328 0.016155921197600374 0 0 0
6705 1 3100.0 1.3198335618940257e-05 0.008592550461143112 0.010731368031261753 0.006138767626455672 0 0 0
6706 1 3100.0 5.8189671323649456e-05 0.013155943477674535 0.007662654429512389 0.012527651048848489 0 0 0
6707 1 3100.0 8.493480505086075e-06 0.005907723200552708 0.0047231397810585125 0.01781310554033948 0 0 0
6708 1 3100.0 8.441687479376962e-06 0.015305876049347243 0.01960266371939428 0.007131993979857931 0 0 0
6709 1 3100.0 4.145642789952392e-05 0.010603656012737194 0.014295577675626295 0.0004432905806318034 0 0 0
6710 1 3100.0 2.683751985076679e-05 0.014642857218280998 0.017601717632740498 0.0026644146934579186 0 0 0
6711 1 3100.0 7.338862880356849e-06 0.007410065322190147 0.006477227122333442 0.016559843106927426 0 0 0
6712 1 3100.0 0.00010357245118634633 0.007016047909937299 0.007363872468162543 0.00368927196313096 0 0 0
6713 1 3100.0 6.560730859507534e-05 0.01941514490345768 0.0008322806847304815 0.016625134434710868 0 0 0
6714 1 3100.0 0.00015539765245274118 0.007669680372026911 0.009487747837266563 0.007925330199990923 0 0 0
6715 1 3100.0 0.00014014913375627329 0.013913708806689786 0.011208869986171977 0.015987308768536268 0 0 0
6716 1 3100.0 4.7205754651436135e-05 0.012282393891710597 0.01658574803205899 0.012413571030147869 0 0 0
6717 1 3100.0 7.14188532231473e-05 0.01339729777799376 0.003925195820299985 0.002489494050998219 0 0 0
6718 1 3100.0 3.608934267757296e-06 0.00422163840348541 0.017589127472339955 0.004207641531431949 0 0 0
6719 1 3100.0 5.08136975995158e-05 0.003017578689881373 0.01987478110001124 0.015825616206975965 0 0 0
6720 1 3100.0 1.487949638255542e-05 0.007487716475139119 0.010665311783271408 0.00016182952494550506 0 0 0
6721 1 3100.0 0.00011730318741142306 0.011745019992086115 0.013022146941659582 0.01906399142828443 0 0 0
6722 1 3100.0 9.976484593038596e-06 0.003562254996298921 0.014430441278850634 0.01837292868254197 0 0 0
6723 1 3100.0 8.941760929693662e-05 0.0065813988612917675 0.00832057763745402 0.015817494127161387 0 0 0
6724 1 3100.0 6.413502025714398e-05 0.007067162781243699 0.00980825057844035 0.017203588279994204 0 0 0
6725 1 3100.0 2.042820861432482e-05 0.0065256574648871754 0.019557232969901143 0.012368033023708806 0 0 0
6726 1 3100.0 1.2569555919084966e-05 0.007932245257633112 0.007145396507295727 0.001395332927077408 0 0 0
6727 1 3100.0 0.00010365970985705103 0.006691354339242163 0.01724469512581992 0.006882647628065423 0 0 0
6728 1 3100.0 8.463885073750816e-05 0.008434955447737317 0.007900324859946399 0.006440259442367987 0 0 0
6729 1 3100.0 8.301344004670845e-05 0.005134455818043979 0.014387162874388362 0.0048329231232407495 0 0 0
6730 1 3100.0 6.168999462788639e-05 0.003412017557562038 0.002882514129154135 0.00509914755282639 0 0 0
6731 1 3100.0 0.00013343388955416044 0.01334873855113933 0.0006864857165894379 0.017112232267391284 0 0 0
6732 1 3100.0 1.9830257721117947e-05 0.011386954252936387 0.007364035311355575 0.01924693206792644 0 0 0
6733 1 3100.0 9.868596296472052e-05 0.019247122485346414 0.0036863621658717828 0.006816915250885787 0 0 0
6734 1 3100.0 7.026923549944654e-05 0.0010055987751922018 0.013681306018813493 0.016842584551983633 0 0 0
6735 1 3100.0 8.042511010627648e-05 0.002478129866565049 0.011994813146109064 0.019759922119772396 0 0 0
6736 1 3100.0 8.76547888976114e-06 0.004140690509266849 0.010781984512523443 0.0036353095233050176 0 0 0
6737 1 3100.0 4e-05 0.0039210197411923935 0.0006846870363896098 0.005618028228894416 0 0 0
6738 1 3100.0 1.845812451215963e-05 0.003797758722470055 0.019784795168863428 0.014696795847154458 0 0 0
6739 1 3100.0 7.185251295367631e-05 0.015964746923669528 0.008459302502334898 0.014090802709958444 0 0 0
6740 1 3100.0 4.461737474002351e-05 0.010707529882909897 0.0033279087287099796 0.005625759347525184 0 0 0
6741 1 3100.0 8.136571158718819e-05 0.018521583336602178 0.011800530543890344 0.009218278430278361 0 0 0
6742 1 3100.0 2.7500709327231457e-05 0.01365284002983835 0.012900296772925701 0.009546321298836763 0 0 0
6743 1 3100.0 9.982797183723099e-05 0.013561127499617692 0.01646352254558352 0.011713335290283943 0 0 0
6744 1 3100.0 9.05018280756716e-06 0.009988129790483476 0.01769571650539751 0.005024886076761169 0 0 0
6745 1 3100.0 1.998141050095973e-05 0.011804470383509725 0.015331462527736718 0.013970477532850674 0 0 0
6746 1 3100.0 0.0001658787658568962 0.0015254322189623606 0.0003108539251253477 0.002376147598846126 0 0 0
6747 1 3100.0 1.3535858979119128e-05 0.00443909452018995 0.018969167913340742 0.003231164154426653 0 0 0
6748 1 3100.0 3e-05 0.008504838317397845 0.01945941251069519 0.018893150788995575 0 0 0
6749 1 3100.0 6.384254668836334e-05 0.00046732648703958743 0.0023477417251349646 0.0001382371608966352 0 0 0
6750 1 3100.0 0.00011866230761728643 0.01054226476011906 0.006911612045773044 0.01448736173421849 0 0 0
6751 2 7870.0 0.0003 0.009974151467076245 0.0037051594378063805 0.00262189698441729 0 0 0
6752 1 3100.0 9.095062171076826e-05 0.012461045329930174 0.01213581076796089 0.006173872075851878 0 0 0
6753 1 3100.0 0.00012265151997450967 0.01364461190554978 0.0026579098222868774 0.01622068389149452 0 0 0
6754 1 3100.0 9.940720998827942e-05 0.007337777989144859 0.018510316626815636 0.01437642267843506 0 0 0
6755 1 3100.0 5.402403802730805e-06 0.014566153917981994 0.012039652193933558 0.018744868529101687 0 0 0
6756 1 3100.0 0.00019675215834296988 0.0016879902083415462 0.00863042145783772 0.01645010158331298 0 0 0
6757 1 3100.0 8.259597712722717e-06 0.002363309468390674 0.003457271159939983 0.019345305473625493 0 0 0
6758 1 3100.0 4.9461244154437966e-05 0.0003268192419676638 0.005920300374410928 0.00503796069880562 0 0 0
6759 1 3100.0 4e-05 0.012178518872025791 0.015314383735183398 0.0005266236518121515 0 0 0
6760 1 3100.0 5.5314311631375225e-05 0.010145264685330795 0.013904887749029227 0.009093879363422321 0 0 0
6761 1 3100.0 1.2525290524296912e-05 0.012938243360955587 0.0004311967911656199 0.013136635258472485 0 0 0
6762 1 3100.0 0.0001509466371944738 0.017068648874596106 0.019734046199033423 0.007387084630951605 0 0 0
6763 1 3100.0 4e-05 0.019793901257950802 0.018911729297523574 0.01717928644288232 0 0 0
6764 1 3100.0 0.00015988841111274924 0.0006496393286181246 0.012627230730152473 0.0063435936502814014 0 0 0
6765 1 3100.0 8.02089941408574e-06 0.01282775171441886 0.017133213561187972 0.018661341403449286 0 0 0
6766 1 3100.0 6.293606395069005e-06 0.014370986787549406 0.010611509805661685 0.013813228383752341 0 0 0
6767 1 3100.0 9.340115655263887e-06 0.013716343280847566 0.013504517594014087 0.013874407692569585 0 0 0
6768 1 3100.0 0.00013769627604099345 0.003505532753149286 0.008476665872132501 0.008404250822940192 0 0 0
6769 1 3100.0 7.878257053814954e-05 0.011500616040206631 0.005176685611048477 0.014977737446765121 0 0 0
6770 1 3100.0 4.546170294138269e-06 0.0033693166462293797 0.005141559963986899 0.0034974051596902245 0 0 0
6771 1 3100.0 7.579752664922432e-05 0.005006901577970924 0.004298737529724829 0.017152157564216834 0 0 0
6772 1 3100.0 7.503671089112462e-05 0.010791923915508074 0.010479356865153014 0.004540326799004024 0 0 0
6773 1 3100.0 0.00016116450600622435 0.0014131986623759764 0.0015409107849683398 0.013758142860239088 0 0 0
6774 1 3100.0 5.102123393880189e-05 0.01761428712095574 0.014914242530770049 0.0020945248620242397 0 0 0
6775 1 3100.0 9.681775821411296e-05 0.01806693017007973 0.005781930904236037 0.018654675462638673 0 0 0
6776 1 3100.0 0.00011554942082079131 0.005400776855082471 0.0025951404438388477 0.006771608260453153 0 0 0
6777 1 3100.0 4.368872839656512e-05 0.017525153058089403 0.005206964198655662 0.01715900461653504 0 0 0
6778 1 3100.0 5.800545697405211e-06 0.00818709434519686 0.014760115554379068 0.008007719546896726 0 0 0
6779 1 3100.0 4e-05 0.0006952754223070229 0.002472678873632786 0.012343137889799124 0 0 0
6780 1 3100.0 0.00015035763591413791 0.0005619506669577124 0.008981138336243052 0.005714551336295953 0 0 0
6781 1 3100.0 1.2557424918607347e-05 0.0011979360326079321 0.01227745458387264 0.017113734239347412 0 0 0
6782 1 3100.0 0.00013902674502665153 0.0010066261306780672 0.0020324513620265964 0.001060867989458776 0 0 0
6783 1 3100.0 0.00011059229819549742 0.0009808278292803645 0.01493086277505758 0.0017861008900085882 0 0 0
6784 1 3100.0 6.488124704146074e-05 0.017755034344886598 0.019270792769812504 0.015625386051424404 0 0 0
6785 1 3100.0 9.62556887205708e-05 0.015190175295972507 0.010759649266286005 0.0075048179365328135 0 0 0
6786 1 3100.0 7.930282340115248e-06 0.018663900921145136 0.01911055268189391 0.0024140935285918885 0 0 0
6787 1 3100.0 1.1093684549559547e-05 0.018287875222227582 0.011704032718905903 0.0078349425669248 0 0 0
6788 1 3100.0 0.00012407197575347738 0.0009240170992265684 0.0057142580131211654 0.006136916845856419 0 0 0
6789 1 3100.0 2.553825008733438e-05 0.017734642483146393 0.0132247793838727 0.0011387261590085217 0 0 0
6790 1 3100.0 1.4326353428609482e-05 0.01302081077820147 0.0005624157868726625 0.002450189752154915 0 0 0
6791 1 3100.0 6.94283109814626e-05 0.009961576863198656 0.01935693111143359 0.01367870694456534 0 0 0
6792 1 3100.0 1.1682296928382666e-05 0.017384848744440542 0.015487460706696455 0.013321363158602856 0 0 0
6793 1 3100.0 9.055089883897431e-06 0.0013582563106298514 0.008550378460590502 0.003074652132802082 0 0 0
6794 1 3100.0 9.330277150777799e-05 0.019581143856038916 0.003556971525341582 0.012965215042934667 0 0 0
6795 1 3100.0 4e-05 0.007127557986151641 0.013157042017061535 0.008713711919846993 0 0 0
6796 1 3100.0 6.638408794746168e-06 0.015103038838043195 0.009081491361513518 0.008693126363804692 0 0 0
6797 1 3100.0 8.161253208588993e-05 0.0035009653586175306 0.0034788479097283215 0.009988645879976856 0 0 0
6798 1 3100.0 1.082585996798029e-05 0.0009211949234789146 0.003185386664396778 0.005675431067545921 0 0 0
6799 1 3100.0 1.4907393477095702e-05 0.01524320410595069 0.012507512422566891 0.017607595420893147 0 0 0
6800 1 3100.0 3e-05 0.006996597715507878 0.010479347989566729 0.00030979732490973963 0 0 0
6801 1 3100.0 5.508041134947724e-06 0.0005932544983923003 0.012359723042510843 0.014952718758406912 0 0 0
6802 1 3100.0 3e-05 0.0022868942788735465 0.008920977204117931 0.008672480165215487 0 0 0
6803 1 3100.0 5.1728352196680095e-05 0.0038085811389667506 0.01838730642679435 0.006921264990597907 0 0 0
6804 1 3100.0 0.00012432675209424942 0.008420367064453718 0.004338288307573627 0.011204800424594465 0 0 0
6805 1 3100.0 0.0001662449060274282 0.008733455351747346 0.012982529416124213 0.012189056907909755 0 0 0
6806 1 3100.0 0.00010141935277055989 0.0017170331898282124 0.013130893994905227 0.007506713214479538 0 0 0
6807 1 3100.0 9.652628979506788e-05 0.01501854381126594 0.007179005441508079 0.008938459634033407 0 0 0
6808 1 3100.0 1.0482155399088734e-05 0.0030825402387352884 0.0028052277308840004 0.011818699885767224 0 0 0
6809 1 3100.0 0.0001018531092329604 0.00221986774934793 0.012450929627404673 0.0019415141674185045 0 0 0
6810 1 3100.0 9.35887817766983e-05 0.017447556789058734 0.005280862932953492 0.014909994769249136 0 0 0
6811 1 3100.0 4.508820528669655e-05 0.002079414277724725 0.01042237726120778 0.014566241174130662 0 0 0
6812 1 3100.0 0.0001976448244838998 0.0011616463745263944 0.012318692850283041 0.014610863346903603 0 0 0
6813 1 3100.0 0.0001635423455542461 0.004236258950404696 0.0011563875345788437 0.0017391365969309247 0 0 0
6814 1 3100.0 0.0001608578132378874 0.008562272171959462 0.0010349119733672261 0.0014948846805606115 0 0 0
6815 1 3100.0 0.00011610679538844336 0.010322594608516304 0.008482073132887246 0.00298950562798195 0 0 0
6816 1 3100.0 0.00011415446990210208 0.013026269479136682 0.015196534756365282 0.004560005236093745 0 0 0
6817 1 3100.0 8.147536628542064e-06 0.015265557610830796 0.011579749629197545 0.017930986400647164 0 0 0
6818 1 3100.0 1.1290131375099725e-05 0.014788030889661699 0.006672191412800508 0.0057601813110404205 0 0 0
6819 1 3100.0 0.00010680246414135518 0.015182442846724842 0.011437824168755504 0.0117252629558951 0 0 0
6820 1 3100.0 0.00016573170039248556 0.008316995087719105 0.0008968431273183847 0.010785057047763117 0 0 0
6821 1 3100.0 7.331281310331472e-06 0.0022886366368612097 0.01863227936741735 0.006212457120488791 0 0 0
6822 1 3100.0 1.3345086350632433e-05 0.001007173408047151 0.006023731745060679 0.004857226040659454 0 0 0
6823 1 3100.0 0.00010251214495010068 0.01379295788801326 0.0008011344129970567 0.019188792569464482 0 0 0
6824 1 3100.0 5.282626789174966e-06 0.010336497222567118 0.00521189001612111 0.006068277580407414 0 0 0
6825 1 3100.0 0.00010193740187496657 0.0077537740613534845 0.007226515209306003 0.009377957855057404 0 0 0
6826 1 3100.0 0.00011057681624964666 0.002267431941851433 0.0012841917202578215 0.015908932006201353 0 0 0
6827 1 3100.0 5.5083929304272126e-05 0.0012173358970397365 0.018935092285679647 0.013491032634759655 0 0 0
6828 1 3100.0 7.2219935297084475e-06 0.010434228736313956 0.018907832272000876 0.012401002004942306 0 0 0
6829 1 3100.0 9.41145029591957e-06 0.0019214555750066886 0.0006452596277578226 0.019558646092602005 0 0 0
6830 1 3100.0 0.00011344306960593364 0.018224997377392613 0.013201680051942204 0.012831238162049079 0 0 0
6831 1 3100.0 1.4325014271217852e-05 0.00358992756006275 0.001231728455620189 0.015054599571792813 0 0 0
6832 1 3100.0 2.4481120059130472e-05 0.006607266686199581 0.0025965915764007055 0.0026751800634305465 0 0 0
6833 1 3100.0 6.044337742617858e-06 0.018912218918382757 0.018260170862297826 0.015378302074897885 0 0 0
6834 1 3100.0 9.80051690426428e-05 0.013258633114474703 0.0061120518395904695 0.017625659549801755 0 0 0
6835 1 3100.0 4.259779296495272e-06 0.004207701224494364 0.012408166428346476 0.011430327474977324 0 0 0
6836 1 3100.0 9.809691498429351e-05 0.01500278758841853 0.019833390299083983 0.0013220036849316127 0 0 0
6837 1 3100.0 1.7118087283308058e-05 0.01893542603776893 0.005606742734886504 0.0018021137228099815 0 0 0
6838 1 3100.0 2.2946014320007325e-05 0.0002328603992170189 0.0007073376367094051 0.0053197236063011666 0 0 0
6839 1 3100.0 2.0141829504536696e-05 0.0028946846447300122 0.014001411193300471 0.011397936682914002 0 0 0
6840 1 3100.0 0.00013274272951157732 0.004860353510623287 0.0009162092043042388 0.013716732810347854 0 0 0
6841 1 3100.0 5.897741571100673e-05 0.0071124276749564225 0.010572534166476206 0.01371290377593298 0 0 0
6842 1 3100.0 8.038388506572631e-05 0.007434320910611895 0.0069314378235478275 0.018171322267269075 0 0 0
6843 1 3100.0 6.213982158229981e-06 0.0034085976120931897 0.014170212887253512 0.01986290117481094 0 0 0
6844 1 3100.0 1.0213151776604953e-05 0.00016149100262437602 0.005742989435142988 0.0012569254154812068 0 0 0
6845 1 3100.0 6.663317024707172e-06 0.01661637789977574 0.010971658169674109 0.009856075770114875 0 0 0
6846 1 3100.0 1.1021382900650787e-05 0.018752403948653937 0.0015811376372661075 0.004268335738657522 0 0 0
6847 1 3100.0 0.0001910056672189189 0.002013047514446896 0.002306724302800849 0.007104868068707611 0 0 0
6848 1 3100.0 0.00012254687936036357 0.003958386097413311 0.008762123205621959 0.011683082916930885 0 0 0
6849 1 3100.0 6.683104474047472e-05 0.0034107055815507286 0.01571977323455654 0.015629005299898076 0 0 0
6850 1 3100.0 1.5800773053275773e-05 0.0028729348990474226 0.01526471316557721 0.0013593684616347158 0 0 0
6851 1 3100.0 0.00012380143481048717 0.002275301212259697 0.014243858840768557 0.014979309856140642 0 0 0
6852 1 3100.0 7.247258671026908e-05 0.00020470759862637795 0.013384749484947224 0.01793664940711855 0 0 0
6853 1 3100.0 1.7110168927340283e-05 0.00336307210005328 0.0009769214670801408 0.011198663103514434 0 0 0
6854 1 3100.0 8.128254488395471e-05 0.006156777193238037 0.015680525475781776 0.006283190554033845 0 0 0
6855 1 3100.0 6.972228243589379e-05 0.004545837111942546 0.0023358388216754293 0.015108446391573707 0 0 0
6856 1 3100.0 0.00015596800902911365 0.005364755397520466 0.007599431416367056 0.00047668517214293876 0 0 0
6857 1 3100.0 6.620374477351738e-05 0.01657261595744522 0.009584143945728662 0.006254672731796853 0 0 0
6858 1 3100.0 7.910639133510224e-06 0.014618115001559216 0.018258808878555324 0.007807319261984284 0 0 0
6859 1 3100.0 9.090251535769e-06 0.008605726544756989 0.014400537376783111 0.013393495906809785 0 0 0
6860 1 3100.0 4.280584074642158e-06 0.015235208933743732 0.012450362822059153 0.018340769698478494 0 0 0
6861 1 3100.0 8.211983028502776e-05 0.0004644429855831163 0.014063482328201702 0.0194499704130532 0 0 0
6862 1 3100.0 0.00010180349343254965 0.0031121493485005087 0.0022639378735297665 0.005291255748264643 0 0 0
6863 1 3100.0 2.902662038100879e-05 0.009767988363887283 0.0075944074689582655 0.017428071022451457 0 0 0
6864 1 3100.0 0.00010143318495430768 0.01971808229300442 0.019218101592108607 0.0015511032153343127 0 0 0
6865 1 3100.0 6.571323760770254e-05 0.003330910563110321 0.00787196692336651 0.016092690829725757 0 0 0
6866 1 3100.0 2.0863904069574015e-05 0.00036322982212931126 0.006515777252208556 0.00228507080072906 0 0 0
6867 1 3100.0 5.0217206808325074e-05 0.004847385517232644 0.01765133139459943 0.008749675225580936 0 0 0
6868 1 3100.0 0.00011505051704745471 0.0043605315181681975 0.018703713287083975 0.01613334531138947 0 0 0
6869 1 3100.0 7.0275880512291e-05 0.017780265550956676 0.0012851267184434548 0.0044005098239697305 0 0 0
6870 1 3100.0 1.7754358398330006e-05 0.008993153270614267 0.012242097187994067 0.009483135932646715 0 0 0
6871 1 3100.0 0.00010072998820471849 0.013242797761170298 0.01180330933710047 0.017926606823418213 0 0 0
6872 1 3100.0 6.69384130736838e-05 0.00610071533115133 0.004250611216740647 0.008800905893389036 0 0 0
6873 1 3100.0 0.0001952787044684281 0.01423438569165567 0.003448843875002772 0.0002994369329876116 0 0 0
6874 1 3100.0 6.0119698657396034e-05 0.008623443921438273 0.011609223966501582 0.015244295708049903 0 0 0
6875 1 3100.0 0.00016518356795881248 0.0026845965997736978 0.005903555464177752 0.014981336947232584 0 0 0
6876 1 3100.0 1.6956423215371302e-05 0.005594901835108368 0.015529438203394459 0.0007599924389806636 0 0 0
6877 1 3100.0 2.7135717325252112e-05 0.0024800644454367627 0.01697942170276402 0.012757870792741415 0 0 0
6878 1 3100.0 1.3491157038836135e-05 0.015248284444106874 0.013792843295550852 0.001968402684962823 0 0 0
6879 1 3100.0 9.942120807421576e-06 0.018839765106562184 0.0198145250338385 0.013480851521721326 0 0 0
6880 1 3100.0 6.554107010120373e-05 0.014433946003251168 0.018470164649354553 0.019228743367179266 0 0 0
6881 1 3100.0 0.0001086458210703134 0.014976569469060013 0.01083120904905618 0.0016327076462589083 0 0 0
6882 1 3100.0 7.389549196873557e-06 0.01024475154786834 0.019829924287867187 0.01958408167755396 0 0 0
6883 1 3100.0 8.940360768296646e-05 0.014517943643125055 0.0188709236482271 0.008366013730923124 0 0 0
6884 1 3100.0 0.00014364916740229415 0.004856999638473116 0.011674560227405198 0.006458465458884263 0 0 0
6885 1 3100.0 2.9639412005553228e-05 0.006763674797514838 0.0020094061531790936 0.004904508266075501 0 0 0
6886 1 3100.0 3e-05 0.016462630886460033 0.0010147975388351228 0.010049321615629658 0 0 0
6887 1 3100.0 5.848063592685823e-06 0.01729518960289748 0.0013545512187974511 0.011224891486811049 0 0 0
6888 1 3100.0 0.0001505787420576027 0.003301112821279859 0.005972319930164071 0.00679614187185711 0 0 0
6889 1 3100.0 0.00011147795249118632 0.0017567233456524782 0.01941951998432179 0.01333063819309575 0 0 0
6890 1 3100.0 8.731058785399098e-06 0.005011622361733069 0.01738505128103591 0.007985359767407905 0 0 0
6891 1 3100.0 1.3535850591766137e-05 0.005531450144646625 0.012304955403327251 0.015354769384477485 0 0 0
6892 1 3100.0 0.00018152918308546052 0.004235016879614147 0.010628528109636555 0.019782935063626165 0 0 0
6893 1 3100.0 4.596491959744309e-05 0.013080973039291625 0.015377796187034611 0.004486202095191251 0 0 0
6894 1 3100.0 2.3680884370362234e-05 0.005734028301407167 0.01950279265818164 0.006865340052191978 0 0 0
6895 1 3100.0 0.000148408072859979 0.012455903891448423 0.009464300191134733 0.0038451454642766396 0 0 0
6896 1 3100.0 7.00231738080958e-06 0.018996839512103264 0.008424871358961814 0.009459739595889246 0 0 0
6897 1 3100.0 2.340417615919687e-05 0.007989619709911817 0.0036289750597360065 0.005143035588721118 0 0 0
6898 1 3100.0 0.0001097271710151507 0.004032715715135844 0.017364686401169283 0.015231840153896977 0 0 0
6899 1 3100.0 0.0001421394175942787 0.019120115685330882 0.014880665200702253 0.01927366724458591 0 0 0
6900 1 3100.0 1.425350126210766e-05 0.00888271624081359 0.006125840736952089 0.012971552395321823 0 0 0
6901 1 3100.0 6.704201140383278e-05 0.01752743952807579 0.011173742507172714 0.0022629557885111575 0 0 0
6902 1 3100.0 6.747119840152763e-05 0.009335266099112076 0.01979725753223527 0.013881644831000814 0 0 0
6903 1 3100.0 0.00012033947441983908 0.008312606765081531 0.01766603322032614 0.018948974060301823 0 0 0
6904 1 3100.0 3.394205723721083e-06 0.01116193741227213 0.013961656977845486 0.006190521753038501 0 0 0
6905 1 3100.0 1.2666452631655545e-05 0.019728890611724666 0.006069618738041971 0.0120317642899494 0 0 0
6906 1 3100.0 5.4255563054885826e-05 0.01853034255364064 0.014397276318909915 0.017491361349911447 0 0 0
6907 1 3100.0 5.616503179260388e-05 0.013361376616055255 0.009180813073213093 0.003341258030792651 0 0 0
6908 1 3100.0 0.00010637556627628165 0.00421157330259347 0.018683526579281306 0.001386332392293141 0 0 0
6909 1 3100.0 9.716348035213847e-06 0.00207363703022843 0.0019079797133868875 0.01756338142246725 0 0 0
6910 1 3100.0 3e-05 0.009383172408517371 0.018830864185589352 0.004036741489986873 0 0 0
6911 1 3100.0 6.545801098680009e-05 0.008435337299319052 0.00931611423435606 0.0012434804853938737 0 0 0
6912 1 3100.0 5.9020206673459e-05 0.006602438294659873 0.009303836574752141 0.011276143310238133 0 0 0
6913 1 3100.0 5.3819920844993716e-05 0.009777267417663165 0.01395940940899948 0.015319673660473649 0 0 0
6914 1 3100.0 7.459350690868287e-05 0.005252302904537947 0.016018579752625484 0.00627032097209272 0 0 0
6915 1 3100.0 6.0085191698948326e-05 0.014002578376558614 0.0026347564512665842 0.006539397827683122 0 0 0
6916 1 3100.0 5.623159830443321e-05 0.004734678286759142 0.01739062717920917 0.009125499460652131 0 0 0
6917 1 3100.0 8.867017018143096e-05 0.019764631628938323 0.010176903386290778 0.01070131193434196 0 0 0
6918 1 3100.0 0.0001651403151207999 0.014813688942632436 0.00786158594297697 0.0036596053604839454 0 0 0
6919 1 3100.0 1.8488687514335576e-05 0.010641995450610783 0.01585120604973353 0.012538582675669836 0 0 0
6920 1 3100.0 3e-05 0.01752666245913936 0.0016006144348916468 0.01133639596008211 0 0 0
6921 1 3100.0 5.798346277482376e-05 0.00037422302052408365 0.007779455195682966 0.0037712227951359227 0 0 0
6922 1 3100.0 0.00011857976755370923 0.0058821106256321375 0.011817025325797804 0.0011471823612133028 0 0 0
6923 1 3100.0 0.00010350857637597829 0.004487878542464556 0.0159217943462052 0.01883680453825977 0 0 0
6924 1 3100.0 0.0001264782723074357 0.0013461350966615408 0.019400045492130966 0.003210531485084283 0 0 0
6925 1 3100.0 0.00012190983168752195 0.008566128222396016 0.006147379249732749 0.010094178144398237 0 0 0
6926 1 3100.0 0.00016386240608724903 0.018065498361625958 0.00729193529211719 0.016858955006141138 0 0 0
6927 1 3100.0 8.394310400998357e-05 0.004886548907807865 0.012300889837013064 0.01772678446409993 0 0 0
6928 1 3100.0 4.9337560179189465e-05 0.0010573841206440511 0.01942211102854316 0.012848685021321988 0 0 0
6929 1 3100.0 0.0001164192747397331 0.0009167769194617284 0.01714474233245425 0.014876578202977194 0 0 0
6930 1 3100.0 9.061413652809777e-05 0.005826608767548302 0.01302990890815789 0.007958779615221399 0 0 0
6931 1 3100.0 0.00014896340246084878 0.0026388591863277426 0.01768526349997894 0.012670509762340638 0 0 0
6932 1 3100.0 0.00010091586875085403 0.016648909855212668 0.0017849067520540225 0.011548696578568383 0 0 0
6933 1 3100.0 3e-05 0.015603800446243097 0.006594100584202478 0.019545847297382273 0 0 0
6934 1 3100.0 5.796140916451283e-05 0.010435893910515298 0.01037239638007931 0.00021800850919354026 0 0 0
6935 1 3100.0 2.186226889354817e-05 0.0063874463651838785 0.010671395246003279 0.013804946832134348 0 0 0
6936 2 7870.0 0.0003 0.013606952947629413 0.01483625893242027 0.005097524396302044 0 0 0
6937 1 3100.0 5.9927386254309174e-05 0.007847448171365132 0.018530726553137866 0.0020542646590131267 0 0 0
6938 1 3100.0 8.257527182272641e-06 0.01339235515051858 0.009388800236399713 0.002912403707875331 0 0 0
6939 1 3100.0 0.00012067861423032117 0.017553562810265818 0.00707021484947886 0.0039554510887281945 0 0 0
6940 1 3100.0 9.077470917064489e-05 0.008113857766309464 0.016459601043342244 0.01576664693619115 0 0 0
6941 1 3100.0 6.0651281740049496e-05 0.016152898606619167 0.004840204028015582 0.019352204229005715 0 0 0
6942 1 3100.0 8.862153036722699e-05 0.005910946141622224 0.005403385736860013 0.013379601658005762 0 0 0
6943 1 3100.0 0.00016640756953765904 0.005043877680674021 0.006345076035427196 0.012160447449613669 0 0 0
6944 1 3100.0 4.205559599268348e-05 0.016916408306104 0.012973484338170629 0.018728897502033732 0 0 0
6945 1 3100.0 3e-05 0.006035460535077458 0.002041492344576219 0.0016031851799087641 0 0 0
6946 1 3100.0 3e-05 0.01455746414058471 0.016795834268318214 0.0009772572725218998 0 0 0
6947 1 3100.0 9.836856002872606e-05 0.005649974902483849 0.0009041451506316231 0.005019979129190891 0 0 0
6948 1 3100.0 1.047966105972121e-05 0.007766909406745327 0.006367450445812695 0.001540486196817952 0 0 0
6949 1 3100.0 8.37228506023686e-05 0.012825963127913282 0.012964517299913141 0.0032766555713675876 0 0 0
6950 1 3100.0 6.188784318750611e-06 0.007957825811751012 0.01140028922687182 0.0048879891474595165 0 0 0
6951 1 3100.0 9.125388931396034e-05 0.0024226371112835345 0.005968450138749512 0.0033895063945850864 0 0 0
6952 1 3100.0 4e-05 0.002875101034561869 0.017831015211386653 0.0031264200270823632 0 0 0
6953 1 3100.0 0.00011559798925965625 0.0161567684360394 0.010603036017192357 0.0069159337537356815 0 0 0
6954 1 3100.0 0.00016205085706802157 0.00920464908994706 0.013981977254077323 0.0029279735728443843 0 0 0
6955 1 3100.0 9.893958788546719e-05 0.0011425514800993133 0.009720179659212357 0.006939616249461322 0 0 0
6956 1 3100.0 1.5325605105725156e-05 0.005354038330356117 0.0058810196063340285 0.003248786576882599 0 0 0
6957 1 3100.0 1.7744682068092356e-05 0.013992570445745398 0.004517363136993087 4.631844367994149e-05 0 0 0
6958 1 3100.0 9.486648560456609e-05 0.01069194137453451 0.017034038818525263 0.00818068034640854 0 0 0
6959 1 3100.0 1.6290687131812073e-05 0.016508625192373772 0.008413438053154422 0.009445164238804742 0 0 0
6960 1 3100.0 7.50250737870212e-05 0.013053556895965783 0.004311330325314258 0.0020452258223360885 0 0 0
6961 1 3100.0 9.704849279709765e-05 0.008448350795083538 0.0019435096541162095 0.001988249459398574 0 0 0
6962 1 3100.0 4.386046234533027e-05 0.013866288114244237 0.01264223398780888 0.006847999194230182 0 0 0
6963 1 3100.0 6.116862584292429e-05 0.0033138774205938998 0.003175640664722839 0.014320261890158295 0 0 0
6964 1 3100.0 1.3748301357790306e-05 0.010809253654493903 0.001101985423264786 0.017909514951088012 0 0 0
6965 1 3100.0 6.438088073485728e-05 0.012947158620222766 0.01012041332386002 0.005004754194523618 0 0 0
6966 1 3100.0 5.46239183197638e-05 0.001317549911005565 0.011208472829841018 0.015065259875308266 0 0 0
6967 1 3100.0 1.0387054636002286e-05 0.011378410887269255 0.00601043966127652 0.004503401503939675 0 0 0
6968 1 3100.0 0.00011698390406179113 0.014796524823421088 0.0033586577446886637 0.0012294162174506414 0 0 0
6969 1 3100.0 0.00012776603031060087 0.0041170972859393045 0.01181569224061358 0.01745247751099224 0 0 0
6970 1 3100.0 0.00010329070062486837 0.005714894832792851 0.018126383488774312 0.004700781993811945 0 0 0
6971 1 3100.0 4e-05 0.0025660681043976007 0.011649935426680497 0.016070936372435313 0 0 0
6972 1 3100.0 1.3207735861935313e-05 0.014231717124598902 0.0020571475583898743 0.010248108053414756 0 0 0
6973 1 3100.0 1.0695624900688783e-05 0.009629613769851358 0.003044049887989144 0.0029249313908997435 0 0 0
6974 1 3100.0 1.2890473978244862e-05 0.0036964037499511637 0.016359876539807038 0.014438462888504276 0 0 0
6975 1 3100.0 9.562815475444147e-05 0.010873850550245274 0.012327904359892389 0.006399152272763123 0 0 0
6976 1 3100.0 6.170959344449159e-05 0.0006692663052184475 0.010678042784849706 0.014842503770967559 0 0 0
6977 1 3100.0 0.00010079476623765579 0.0018105768048840402 0.006867229502707192 0.017771295012481585 0 0 0
6978 1 3100.0 0.00018895757022355006 0.018117457137737575 0.012043968168526207 0.018939833199166794 0 0 0
6979 1 3100.0 6.1067838010097186e-06 0.008852161459476881 0.001613102724737171 0.015740448048481556 0 0 0
6980 1 3100.0 5.685183918712055e-06 0.004458785694063728 0.0015244623650614568 0.009918665659508996 0 0 0
6981 1 3100.0 0.0001258500810604644 0.0016556028854407883 0.014947594854013988 0.017757104602625303 0 0 0
6982 1 3100.0 6.456999351829874e-05 0.016960217464189156 0.016905233160647237 0.011209067064877213 0 0 0
6983 1 3100.0 0.00012060751026968313 0.019439116866417677 0.007918642555662674 0.011054981652097477 0 0 0
6984 1 3100.0 0.0001577555166317143 0.0010214895194787825 0.016558769051480533 0.0195873730730002 0 0 0
6985 1 3100.0 7.627113127439138e-05 0.007350761010580833 0.016426416341470608 0.007278210027143981 0 0 0
6986 1 3100.0 0.0001664760826358625 0.01276534368751552 0.019191572074690577 0.004258608015100975 0 0 0
6987 1 3100.0 8.34215354935964e-05 0.009652298137979297 0.01472740517944496 0.0007577087254902072 0 0 0
6988 1 3100.0 5.2791104660681804e-05 0.018061281219773226 0.01076466865253369 0.007031802189886056 0 0 0
6989 1 3100.0 9.436802648266048e-05 0.01344577335881093 0.0167413908091226 0.01236732960502456 0 0 0
6990 1 3100.0 5.572665176125513e-06 0.01994365378086793 0.016012579096790953 0.013744900803735666 0 0 0
6991 1 3100.0 0.00013126782373826175 0.006948448627058848 0.002421798229628992 0.0019948881721210494 0 0 0
6992 1 3100.0 1.198418183523071e-05 0.0008400636007830468 0.0026353930112383425 0.0007430570169535518 0 0 0
6993 1 3100.0 0.00010312384192314749 0.000983823106068895 0.0026865335039280283 0.014504671343532841 0 0 0
6994 1 3100.0 3e-05 0.009035477616187249 0.010329423407084539 0.0011074541292840885 0 0 0
6995 1 3100.0 7.96591331108474e-06 0.0027597726258076906 0.017063558765850334 0.01247514276171926 0 0 0
6996 1 3100.0 8.057272365386922e-05 0.010785464915797006 0.016555784322670245 0.0093556391105729 0 0 0
6997 1 3100.0 4e-05 0.019813449557663513 0.004273772305304226 0.015551894988639386 0 0 0
6998 1 3100.0 1.4173923865028817e-05 0.01582446066462819 0.019530807392758007 0.012304860722522895 0 0 0
6999 1 3100.0 0.00010993493762922529 0.01513863867107858 0.01842898925593185 0.014466467544369581 0 0 0
7000 1 3100.0 0.00011373949972012402 0.014015207282631692 0.017304325336872137 0.012884615558223244 0 0 0
7001 1 3100.0 7.424164260008439e-05 0.007693043122347661 0.014544480513358075 0.0035591718573872505 0 0 0
7002 1 3100.0 5.547712621237441e-06 0.018048132576158168 0.01064956532330164 0.003440877562483515 0 0 0
7003 1 3100.0 1.7678412704184418e-05 0.008006720525522475 0.01568488833710141 0.015839899236451883 0 0 0
7004 1 3100.0 0.00010983649591498808 0.019627888941517534 0.011807476533890793 0.019626130583318215 0 0 0
7005 1 3100.0 6.0274760955753934e-05 0.010085019837010602 0.009870785932538014 0.014662544195245169 0 0 0
7006 1 3100.0 9.463476882475759e-05 0.007960766316180567 0.0014507872549303221 0.019044414495305778 0 0 0
7007 1 3100.0 2.2315444246264106e-05 0.018476802685833685 0.011127735687145132 0.01831237158069066 0 0 0
7008 1 3100.0 0.00010952111796271979 0.016843886152279244 0.0012260195712691197 0.003922645838629372 0 0 0
7009 1 3100.0 7.21309243568449e-05 0.002695647638994262 0.010260218983008764 0.01295258434596097 0 0 0
7010 1 3100.0 8.478574543573212e-06 0.010918970066754796 0.0046970319442924 0.003031904783972701 0 0 0
7011 1 3100.0 0.00010080229381859069 0.0058088901988200894 0.018356137366345504 0.00963690663831403 0 0 0
7012 1 3100.0 7.033614559257027e-05 0.00849074636755586 0.010202050263622156 0.018902477278716752 0 0 0
7013 1 3100.0 0.00015293385554467868 0.01005927311158454 0.013986850740525957 0.005812024140525602 0 0 0
7014 1 3100.0 5.232762320270199e-06 0.004858415869161472 0.018022175366148037 0.0014848776412821636 0 0 0
7015 1 3100.0 1.5712949160334227e-05 0.019386060226176966 0.013013558592172415 0.00984140953662049 0 0 0
7016 1 3100.0 3e-05 0.006186402551766332 0.019290386092512844 0.001251244060023107 0 0 0
7017 1 3100.0 7.769792846978742e-06 0.019601541048597355 0.008707719015829883 0.016453360564831904 0 0 0
7018 1 3100.0 1.4136565514478544e-05 0.00035764386683500497 0.001384294580731268 0.018467573616302663 0 0 0
7019 1 3100.0 7.239741683662757e-05 0.010557600918747934 0.012226978847078435 0.011894407722089332 0 0 0
7020 1 3100.0 0.00011457441380664827 0.013472311731771209 0.001022320639106252 0.012501819381203559 0 0 0
7021 1 3100.0 4.5728062813214855e-05 0.0036433310174582892 0.004050291633407797 0.014918669555739467 0 0 0
7022 1 3100.0 1.0104615642436842e-05 0.001011737560019697 0.0035748708475808796 0.011609531249903715 0 0 0
7023 1 3100.0 9.849826288465512e-05 0.015648570529462776 0.0076836667959052215 0.001260991247934019 0 0 0
7024 1 3100.0 7.651648496419057e-05 0.008964703502590305 0.015296402028228292 0.005446070753425492 0 0 0
7025 1 3100.0 6.954897963737173e-05 0.010773502379401936 0.019377959579709628 0.010155822714055797 0 0 0
7026 1 3100.0 0.00012956083540706183 0.012044287687058165 0.0016338566914258887 0.012724170534673498 0 0 0
7027 1 3100.0 1.7270310119435376e-05 0.0067946496012568375 0.009703213072935382 0.01653390848735997 0 0 0
7028 1 3100.0 0.0001152365497759522 0.009431408888782569 0.006610968225254342 0.005222672442320119 0 0 0
7029 1 3100.0 0.00012400635409662183 0.007479211957879556 0.0030209324368157438 0.019841366782638193 0 0 0
7030 1 3100.0 1.391693018267513e-05 0.005513263215758174 0.013714688373965672 0.0021408423788823734 0 0 0
7031 1 3100.0 8.885860819370075e-05 0.014260006607213513 0.000634968678531837 0.016086676895224503 0 0 0
7032 1 3100.0 5.885025546864558e-05 0.0028206970407760952 0.00047772712463063416 0.0032704491534790614 0 0 0
7033 1 3100.0 0.00013131446120708752 0.011241817711435717 0.010195762789249623 0.01034570477788734 0 0 0
7034 1 3100.0 8.40402639810443e-05 0.011218074833032624 0.017320155927927783 0.010429222672970286 0 0 0
7035 1 3100.0 3e-05 0.005598942495446516 0.010398783460274874 0.0046997832114306385 0 0 0
7036 1 3100.0 0.0001729892202421574 0.001967321840224819 0.006685399270882239 0.007567050143322627 0 0 0
7037 1 3100.0 0.00010197494296137291 0.005733033960579038 0.019433710659459653 0.008614689074486048 0 0 0
7038 1 3100.0 9.81655523756593e-05 0.014620716861146481 0.013812209825054282 0.0032284551304176635 0 0 0
7039 1 3100.0 1.1947514234955795e-05 0.0010204152658279794 0.015059434255304194 0.018070808937017343 0 0 0
7040 1 3100.0 8.974004539403115e-06 0.004753100309173516 0.0018789563440037872 0.008228671657865368 0 0 0
7041 1 3100.0 8.680574977206845e-05 0.0033607130198351045 0.007845381763917192 0.01857913756327265 0 0 0
7042 1 3100.0 0.00011209443296865713 0.013077768652909326 0.013013950884013246 0.003901175213946052 0 0 0
7043 1 3100.0 4e-05 0.0013431374240454243 0.00943806525507956 0.005234701667272644 0 0 0
7044 1 3100.0 0.00010803771934698349 0.012831908454496145 0.0026209232703720046 0.011682113575767856 0 0 0
7045 1 3100.0 3e-05 0.002621534171187416 0.01272115034763637 0.009578425631786692 0 0 0
7046 1 3100.0 0.00017405799117914655 0.005548695367936461 0.01934051033538001 0.015329531937739 0 0 0
7047 1 3100.0 0.0001322971634068351 0.01067251527220609 0.0068848895360765034 0.01822251967101196 0 0 0
7048 1 3100.0 1.4154897043779908e-05 0.01645408459596212 0.009703552835857127 0.005843922972731549 0 0 0
7049 1 3100.0 9.210339713177436e-05 0.01378369131805703 0.017638051202026883 0.010168787703395884 0 0 0
7050 1 3100.0 3e-05 0.01752191794291349 0.013396334866542932 0.0016613667919999017 0 0 0
7051 1 3100.0 1.0165971378439699e-05 0.006780976213310447 0.013743964710567493 0.0010656038596704549 0 0 0
7052 1 3100.0 5.584825852057691e-05 0.017344219889444883 0.010668571031716815 0.01086935119448649 0 0 0
7053 1 3100.0 8.294831271066518e-05 0.01309839837229057 0.008590861621072773 0.002540663303858064 0 0 0
7054 1 3100.0 1.4776827768940897e-05 0.0009548263047982779 0.005121685388858236 0.013724584958615225 0 0 0
7055 1 3100.0 9.28999999592849e-05 0.01878760673036491 0.01834932256514221 0.0027156171296575317 0 0 0
7056 1 3100.0 0.00010441682491149082 0.0025675791489676142 0.0071639493453154466 0.01799280684667403 0 0 0
7057 1 3100.0 0.00013624699326565397 0.011811062656558098 0.00048515959804353915 0.00016124619583950703 0 0 0
7058 1 3100.0 1.2773242047060048e-05 0.001041569200920288 0.013485611237928786 0.011659140216247619 0 0 0
7059 1 3100.0 4e-05 0.014002647041173646 0.015862336975142634 0.019668442413730607 0 0 0
7060 1 3100.0 0.00012110680263684086 0.0031215853697984138 0.008780674490494621 0.00624756315887038 0 0 0
7061 1 3100.0 7.567809642872384e-05 0.008234632951782258 0.0011487953365698163 0.013701312496832855 0 0 0
7062 1 3100.0 2.8591742135743116e-05 0.013951200978437774 0.005182176442601969 0.016366196494459542 0 0 0
7063 1 3100.0 0.0001601323932647749 0.0066722150822801606 0.00523090556590043 0.004882667576028792 0 0 0
7064 1 3100.0 5.207234332065584e-06 0.010672867146370262 0.011970489234427464 0.007052500827778566 0 0 0
7065 1 3100.0 1.5047432417752596e-05 0.01280314230523564 4.347769866727942e-05 0.01752202596137313 0 0 0
7066 1 3100.0 6.982567499751378e-06 0.01770616478321466 0.0014834007803390516 0.0025932373549595053 0 0 0
7067 1 3100.0 2.3850713730911877e-05 0.01588453523668515 0.013856160569857284 0.016078152859539566 0 0 0
7068 1 3100.0 0.0001831033862840435 0.009660918751474389 0.00477546915210111 0.0011014516265491895 0 0 0
7069 1 3100.0 6.425683364357957e-05 0.007632678843660046 0.00525998562720994 0.012645109804725205 0 0 0
7070 1 3100.0 3e-05 0.012817078681859054 0.008959672992340802 0.015357355163004837 0 0 0
7071 1 3100.0 1.3230299593519591e-05 0.0043344303145627094 0.001148605411780802 0.012456412243407192 0 0 0
7072 1 3100.0 1.0119295812511512e-05 0.016876638523187833 0.00034454505759279824 0.019385257171351408 0 0 0
7073 1 3100.0 0.0001635767943965533 0.00032240952749975943 0.0093559274257093 0.007078890871503082 0 0 0
7074 1 3100.0 0.0001917076701920749 0.01166734560444613 0.0053257650564939515 0.012150086939247065 0 0 0
7075 1 3100.0 7.008530919659552e-06 0.01700193458068775 0.007644567861252343 0.0031472477509491355 0 0 0
7076 1 3100.0 0.00010508301771392582 0.01458883793462368 0.0006910208331749649 0.008927173576462067 0 0 0
7077 1 3100.0 1.1622704840963418e-05 0.0015726228214406437 0.005253241345681519 0.008915231055532442 0 0 0
7078 1 3100.0 1.9346987312580878e-05 0.016963164172541765 0.0018239626373713483 0.018031626482546605 0 0 0
7079 1 3100.0 1.336109033315256e-05 0.016181087028042506 0.011239288565777822 0.009315335267169383 0 0 0
7080 1 3100.0 0.00011397361127193222 0.006352558646738196 0.019810432206988384 0.01903155195916045 0 0 0
7081 1 3100.0 4.787329747086121e-05 0.019883184782358728 0.00329782719520463 0.01654158257441866 0 0 0
7082 1 3100.0 9.454288979619529e-06 0.01891947666729203 0.017040065410102567 0.0019451378489231384 0 0 0
7083 1 3100.0 8.998129289275095e-05 0.00017927563858824997 0.004249465279413389 0.01109015222277841 0 0 0
7084 1 3100.0 0.00011264617962650913 0.003302835094280523 0.015934197975424474 0.0196142158195397 0 0 0
7085 1 3100.0 4.707763045863056e-05 0.013253337193570629 0.0008043137944059387 0.010357814583437297 0 0 0
7086 1 3100.0 0.00011370125233858482 0.008858218881505371 0.01716903909465521 0.01058154598223722 0 0 0
7087 1 3100.0 1.3635521873957591e-05 0.009075137051730834 0.0004168918155877657 0.018849980987960684 0 0 0
7088 1 3100.0 0.000124176165066663 0.0006300410126177413 0.007212354837847921 0.0027151876729009186 0 0 0
7089 1 3100.0 0.0001519469854928046 0.007264234197806447 0.009912305828961528 0.0008565558741101382 0 0 0
7090 1 3100.0 7.146488451216888e-05 0.008718409505204465 0.017612343280567534 0.012303474880021724 0 0 0
7091 1 3100.0 0.00015278172156334111 0.012122355878736972 0.017163046390583282 0.01820887707604123 0 0 0
7092 1 3100.0 7.3720668105184144e-06 0.015483679752704281 0.010704748493443989 0.01617349060141836 0 0 0
7093 1 3100.0 0.00015446346279415543 0.00350557628810361 0.01319537496397891 0.006500287258183491 0 0 0
7094 1 3100.0 0.00015356587006831596 0.010671858312899692 0.0027283059281867136 0.0026320616858046637 0 0 0
7095 1 3100.0 1.5329681529878758e-05 0.008451825519342069 0.005692448554763091 0.0045459054943046045 0 0 0
7096 1 3100.0 0.00010876233099912886 0.005158234408794358 0.01388185198298526 0.004821476052265815 0 0 0
7097 1 3100.0 0.00018647053840137285 0.001384164735663108 0.008978795751368384 0.001565118722939002 0 0 0
7098 1 3100.0 1.1694198660938438e-05 0.0002037834785193355 0.008343306584614837 0.004759905632342595 0 0 0
7099 1 3100.0 6.798302069768009e-05 0.01377703761866677 0.008718014511874888 0.015002245480630979 0 0 0
7100 1 3100.0 0.00010625975897145326 0.016969984915190715 0.014069621776291924 0.0016787915715116171 0 0 0
7101 1 3100.0 9.800608817624122e-05 0.0009789532320605982 0.007441295657291364 0.0031759734561803516 0 0 0
7102 1 3100.0 3e-05 0.0176060947079982 0.013407350863332133 0.0007896390453669769 0 0 0
7103 1 3100.0 2.0838800809466414e-05 0.0023096877453604187 0.001044335713645407 0.01859336739077868 0 0 0
7104 1 3100.0 6.583414177793644e-05 0.016536119172862386 0.017684445987448293 0.0003040749867750236 0 0 0
7105 1 3100.0 3e-05 0.004090142738988863 0.0037420038705665167 0.006175018500247558 0 0 0
7106 1 3100.0 1.0033566064282849e-05 0.012537128773128542 0.01964629033984277 0.011263009076168524 0 0 0
7107 1 3100.0 1.0121044183445795e-05 0.008255351745752483 0.019439171076903378 0.018423317491349418 0 0 0
7108 1 3100.0 4e-05 0.016797340413679192 0.0008768664506529598 0.005306944675792358 0 0 0
7109 1 3100.0 2.642491805307818e-05 0.003973395713399013 0.004003570643428913 0.012534263194845545 0 0 0
7110 1 3100.0 5.424364601846036e-06 0.0009039585330479852 0.011980953704611715 0.006826988252468527 0 0 0
7111 1 3100.0 0.0001603101921646895 0.019515201848127578 0.003086793414457812 0.019361093661954747 0 0 0
7112 1 3100.0 0.00017638477352680646 0.01905279329311537 0.009087163415490648 0.009566079107987124 0 0 0
7113 1 3100.0 7.077181153664176e-06 0.013914875013523639 0.0014940551604998675 0.003141806906862757 0 0 0
7114 1 3100.0 8.262220514006828e-06 0.0011037323473631958 0.013315049456560443 0.008881714554790596 0 0 0
7115 1 3100.0 8.548328922800909e-05 0.018630144410915386 0.01162671914844161 0.003595773533346282 0 0 0
7116 1 3100.0 0.0001649824301062819 0.0017932326867798264 0.009659984769629927 0.010868639875003425 0 0 0
7117 1 3100.0 7.843693782769443e-05 0.00638857161264381 0.0113790683312294 0.009963995318531932 0 0 0
7118 1 3100.0 2.2673980720773913e-05 0.010603266337161354 0.0005003747729325068 0.0017378485140791065 0 0 0
7119 1 3100.0 6.4688085327496155e-06 0.002791667322788873 0.016523221516322933 0.007317322315613993 0 0 0
7120 1 3100.0 0.00011779075899319447 0.014920630786544134 0.004335304294255307 0.005627379604584981 0 0 0
7121 1 3100.0 0.00011497128205326207 0.019875712871323312 0.012793599841680374 0.002127884045446619 0 0 0
7122 1 3100.0 2.5e-06 0.0025230905738675 0.005160262192959739 0.012132237821269008 0 0 0
7123 1 3100.0 8.471554169039633e-05 0.005145379492675724 0.01807578704822047 0.006316940504206391 0 0 0
7124 1 3100.0 0.00010115360295164221 0.0009781549670704983 0.012153654421765024 0.005598423603400053 0 0 0
7125 1 3100.0 1.1414409083885505e-05 0.008804642126640576 0.004431238359353298 0.006738980155174534 0 0 0
7126 1 3100.0 9.65025193332913e-06 0.018693852045263446 0.017115862737653326 0.0007548795809333228 0 0 0
7127 1 3100.0 9.511563200692128e-06 0.008990359993746496 0.002604748472968866 0.016616969514350655 0 0 0
7128 1 3100.0 2.2824825887704468e-05 0.002052214302254529 0.007630298821830674 0.017740490391542484 0 0 0
7129 1 3100.0 1.4382359248756322e-05 0.0030075993508840927 0.0068566298754481276 0.01702143248223959 0 0 0
7130 1 3100.0 8.041964223616428e-05 0.01939242581371961 0.009074284135888917 0.00133697635095257 0 0 0
7131 1 3100.0 6.502524925446453e-05 0.017502148390188762 0.007696567964701374 0.006537521229239221 0 0 0
7132 1 3100.0 9.388376134198227e-05 0.018581642945726663 0.012879221709773816 0.0026342077501580706 0 0 0
7133 1 3100.0 0.00016021985556778032 0.009596488542765593 0.003292236826593468 0.007974870757946274 0 0 0
7134 1 3100.0 4e-05 0.01973966207066213 0.01914549943285517 0.01432121577693306 0 0 0
7135 1 3100.0 2.5432563057145928e-05 0.014872698688885 0.00604745707977611 0.004137111657464288 0 0 0
7136 1 3100.0 9.2614208092027e-05 0.016663089390095493 0.010711734786627465 0.011504910834126345 0 0 0
7137 1 3100.0 2.0149126510269674e-05 0.019648534620502284 0.018758553810526546 0.002095244194745724 0 0 0
7138 1 3100.0 3.924977186048443e-06 0.0037021952895549973 0.005713180446787331 0.0036243686242715557 0 0 0
7139 1 3100.0 0.00012749428778944218 0.00871097506722125 0.00876675000201174 0.006360955301495052 0 0 0
7140 1 3100.0 0.00011020334752289089 0.014373669743407886 0.006609311363015865 0.013532987848164268 0 0 0
7141 1 3100.0 0.00010538338819242072 0.005163392440083858 0.001791769690562257 0.014893374688583165 0 0 0
7142 1 3100.0 7.908451075622038e-05 0.019598660371386564 0.008166203985302493 0.011345126340000783 0 0 0
7143 1 3100.0 7.71069826558901e-05 0.013006238396144381 0.013538251104524284 0.011799453092395445 0 0 0
7144 1 3100.0 5.022637844651974e-05 0.008392783166962656 0.016395255497272655 0.018065579503529952 0 0 0
7145 1 3100.0 6.339192498566548e-06 0.014337942929520035 0.008110134980700758 0.010767011036200648 0 0 0
7146 1 3100.0 2.9938206526793477e-05 0.010624163314216877 0.013295193253242188 0.007036922261095358 0 0 0
7147 1 3100.0 0.00012462384240481575 0.00865257023326597 0.019158109993771297 0.005321460887115571 0 0 0
7148 1 3100.0 2.5e-06 0.009270995507903603 0.014515028932631726 0.00982778928589389 0 0 0
7149 1 3100.0 9.238006593314637e-05 0.008536068960940203 0.01812815862115769 0.009852007986410696 0 0 0
7150 1 3100.0 8.160950166855073e-05 0.013368933588318149 0.017514526824040075 0.015120039647896814 0 0 0
7151 1 3100.0 2.325090289211961e-05 0.006431713980649877 0.004598222697792326 0.019449319310923276 0 0 0
7152 1 3100.0 0.00011363895703948016 0.003310998339508802 0.018770753646781095 0.009147210952832632 0 0 0
7153 1 3100.0 1.0408393216298304e-05 0.01736388072583006 0.019120824114424045 0.002735314684915691 0 0 0
7154 1 3100.0 8.837009844429876e-06 0.01788150876661025 0.005526911896812308 0.00349533953887891 0 0 0
7155 1 3100.0 6.492931923847875e-05 0.00946149773173393 0.011749334744249908 0.009137150459063846 0 0 0
7156 1 3100.0 4.775861275460765e-05 0.002011138901650836 0.011658852931979827 0.013346448792550314 0 0 0
7157 2 7870.0 0.0003 0.003181939508424528 0.007311290716850512 0.006235510836143431 0 0 0
7158 1 3100.0 6.811472761521491e-05 0.001726682862806802 0.013040695182810995 0.007326652385595198 0 0 0
7159 1 3100.0 6.837260289360505e-05 0.01787984472052049 0.006514081123199862 0.013838750199504486 0 0 0
7160 1 3100.0 7.243874157169716e-05 0.01044318703092323 0.005682469662482834 0.010329656816015489 0 0 0
7161 1 3100.0 9.699705860949485e-05 0.007173561789812237 0.004794880898369696 0.0068772252469908824 0 0 0
7162 1 3100.0 0.0001501916104807402 0.005207867067261194 0.005229086284343839 0.004267210416705416 0 0 0
7163 1 3100.0 9.221377577871369e-06 0.013577138397043198 0.008722897964861113 0.005396365524675531 0 0 0
7164 1 3100.0 2.365528279852496e-05 0.01869315091027759 0.007444602854451727 0.010886693946029615 0 0 0
7165 1 3100.0 4.456688152354649e-05 0.001608380805176131 0.009486736712703895 0.014864172713071347 0 0 0
7166 1 3100.0 1.5996595186283445e-05 0.009960217564598915 0.005302351104657114 0.01985195673639649 0 0 0
7167 1 3100.0 4.9597903180105825e-05 0.008003487790673943 0.008796825208511529 0.010479319109076523 0 0 0
7168 1 3100.0 0.00012600605235128467 0.0175923530063584 0.013958890216560042 0.01846282163327167 0 0 0
7169 1 3100.0 0.0001545169644974715 0.0009556348043944273 0.005858096661015818 0.00040284276853762746 0 0 0
7170 1 3100.0 1.374182119016207e-05 0.007802822398191391 0.013834865616145905 0.017994167285735527 0 0 0
7171 1 3100.0 1.6938476880144266e-05 0.013550130265849305 0.004723566405616152 0.0179322350524319 0 0 0
7172 1 3100.0 1.4945360579314855e-05 0.013221633522410856 0.018434644356321604 0.0022091996294006247 0 0 0
7173 1 3100.0 5.49155015587759e-06 0.000672602469796529 0.017543238202691904 0.013461194312542316 0 0 0
7174 1 3100.0 0.00026218099222984195 0.0005358371114564139 0.007572578825343234 0.004976166295223007 0 0 0
7175 1 3100.0 6.219406845048991e-06 0.013408013709391042 0.009859446972348678 0.0009108097184824271 0 0 0
7176 1 3100.0 5.2139006766319294e-06 0.013646804389587226 0.01841451948516242 0.018990076328836248 0 0 0
7177 1 3100.0 4e-05 0.002424047363990841 0.012580669507520039 0.001056288420941033 0 0 0
7178 1 3100.0 6.416375497409911e-05 0.007197038522971309 0.019173534796745613 0.006505013315744379 0 0 0
7179 1 3100.0 4e-05 0.010683222928878786 0.014255508673693922 0.01984692232097594 0 0 0
7180 1 3100.0 4.191471987293494e-05 0.01877325442656708 0.011251476232654647 0.015726145571948798 0 0 0
7181 1 3100.0 0.00010704855278929329 0.01527148325148824 0.018267374218507677 0.004721442874283929 0 0 0
7182 1 3100.0 7.059336838456731e-05 0.018441788471949237 0.0167053697119254 0.01444852890942077 0 0 0
7183 1 3100.0 0.00010199648443052256 0.00595569623732512 0.0005680137363535384 0.001343559599693759 0 0 0
7184 1 3100.0 0.00011728176881150127 0.005967886230934285 0.010362779783760975 0.0052989145467218154 0 0 0
7185 1 3100.0 0.00015575135732402996 0.005910494595982448 0.004288196029549688 0.015506718648173698 0 0 0
7186 1 3100.0 6.432392397163481e-05 0.0011202597409529168 0.005112608695197186 0.003742916321737006 0 0 0
7187 1 3100.0 5.356830666267731e-05 0.016967510294565412 0.003002456047195033 0.005828671018865432 0 0 0
7188 1 3100.0 6.323986155216111e-05 0.018089950573042114 0.008426242003652615 0.01871792718175009 0 0 0
7189 1 3100.0 9.736758050824902e-05 0.015946584802200972 0.01714208246675481 0.0075154311044819955 0 0 0
7190 1 3100.0 0.0001256569680310643 0.008007270714536316 0.001183122421087077 0.010337697873924008 0 0 0
7191 1 3100.0 0.000194979338906027 0.0030191950252426458 0.014161860066214057 0.010108394644154525 0 0 0
7192 1 3100.0 1.3998849103457624e-05 0.019176534900276213 0.0036462833617570533 0.013193680568664611 0 0 0
7193 1 3100.0 0.0001961997012206973 0.01843300896301869 0.0023912751184948424 0.00445866516417609 0 0 0
7194 1 3100.0 4.4382494650273095e-06 0.008746609594437044 0.010972541090084125 0.00037392236346902555 0 0 0
7195 1 3100.0 0.00014569618520165114 0.010020562675299305 0.011553274887505913 0.003586366954850923 0 0 0
7196 1 3100.0 2.9117803357596777e-05 0.013405380142840623 0.008698860045903633 0.01781592488534047 0 0 0
7197 1 3100.0 0.00023285180182128353 0.015398824908123025 0.005823580894050061 0.00770395826558446 0 0 0
7198 1 3100.0 6.342777003293055e-05 0.005533135771780456 0.009290508405758659 0.005964412581710979 0 0 0
7199 1 3100.0 4e-05 0.008125436140292538 0.0019332651972473831 0.01570000888324889 0 0 0
7200 1 3100.0 8.709051090036553e-06 0.007513982075944605 0.01892521676222502 0.008439477228603854 0 0 0
7201 1 3100.0 4e-05 0.013453710868638311 0.0047883993745885325 0.011727905999307077 0 0 0
7202 1 3100.0 5.505897839532391e-05 0.005717450371596457 0.009832481157548742 0.016345380216191314 0 0 0
7203 1 3100.0 2.0699770390412138e-05 0.017390568634181213 0.00624586110897689 0.01846339225810702 0 0 0
7204 1 3100.0 0.00014799533889086006 0.0009733866428856296 0.0006514962279536363 0.004369929243668872 0 0 0
7205 1 3100.0 7.877948838089296e-05 0.019254997454955687 0.00681607280274511 0.010305355035832778 0 0 0
7206 1 3100.0 6.500280914456331e-05 0.013293920894394611 0.019643621427559998 0.011801687085691497 0 0 0
7207 1 3100.0 4.029025190296126e-06 0.008299428025977941 0.010634794745417692 0.015614398745042803 0 0 0
7208 1 3100.0 1.1254493884998276e-05 0.01393759151602108 0.0031576093969027373 0.011817706179516779 0 0 0
7209 1 3100.0 1.5650749743029146e-05 0.015983334512439683 0.010550420018158509 0.008487612113508548 0 0 0
7210 1 3100.0 3.819020409561868e-06 0.015719152959854977 0.0076039122564623435 0.011972973929909 0 0 0
7211 1 3100.0 5.9859973629398916e-05 0.017066817510909417 0.009164160039267594 0.011995373743753032 0 0 0
7212 1 3100.0 8.956738352500562e-05 0.019520844116450824 0.018309260282354228 0.01027449479850281 0 0 0
7213 1 3100.0 0.00012820310101191383 0.017087605065423343 0.011277792088590363 0.01680177075713449 0 0 0
7214 1 3100.0 0.00023772618465409598 0.012748412946272695 0.002858082798119895 0.01886619397059319 0 0 0
7215 1 3100.0 7.149820144264807e-05 0.0068610794326530505 0.008716173738429703 0.019897587874978792 0 0 0
7216 1 3100.0 1.6224036775415564e-05 0.014412062985810927 0.0002003866442750916 0.01446307072777143 0 0 0
7217 1 3100.0 6.153524364980312e-05 0.007907130871612674 0.0023007284123181936 0.012117949403991829 0 0 0
7218 1 3100.0 1.1211336528536408e-05 0.013635384919750722 0.0051267614419299905 0.007188519953121558 0 0 0
7219 1 3100.0 0.00010430753052048219 0.010039318358435998 0.008677458248462463 0.009077234564333549 0 0 0
7220 1 3100.0 1.4305749130074767e-05 0.004070180710594529 0.015935451635853977 0.015477057743041665 0 0 0
7221 1 3100.0 0.00015769631804550476 0.011650780529238852 0.00811364086708839 0.01765622419384636 0 0 0
7222 1 3100.0 5.608624455234585e-05 0.008465601395759997 0.010583692160478735 0.013022448871403124 0 0 0
7223 1 3100.0 1.075186969868567e-05 0.008397772699430928 0.0006486763056562139 0.005534976058504512 0 0 0
7224 1 3100.0 0.0002333287063358197 0.012984593951216336 0.012164802642475332 0.014854119649237963 0 0 0
7225 1 3100.0 7.209757350664339e-06 0.008360990612994858 0.000844388912535301 0.0026615411320935907 0 0 0
7226 1 3100.0 7.407814310433011e-05 0.0006152877094234586 0.011832446013789686 0.014975196262183387 0 0 0
7227 1 3100.0 8.885922055317194e-05 0.015090630711607206 0.005117227182084719 0.0024819815788830833 0 0 0
7228 1 3100.0 1.0337873574906167e-05 0.009591515232471377 0.0067300443355969705 0.002103657653395587 0 0 0
7229 1 3100.0 7.646575032403387e-05 0.006697875296815783 0.010851122356548363 0.005564377200298058 0 0 0
7230 1 3100.0 0.00020303212239296533 0.0068107419569366405 0.0020361751876669903 0.004275792749291467 0 0 0
7231 1 3100.0 4.403122995169727e-06 0.010713986877691685 0.008144127442263829 0.016441001205138233 0 0 0
7232 1 3100.0 7.002519797310856e-05 0.013355838499911057 0.01097485297409215 0.013921173236399301 0 0 0
7233 1 3100.0 1.911099596107109e-05 0.019519940942686238 0.011205865584117743 0.00431280107528693 0 0 0
7234 1 3100.0 0.00014660046439165058 0.016589310285329024 0.0003657097731454527 0.017013008921167364 0 0 0
7235 1 3100.0 1.6321197342724168e-05 0.012625314590104835 0.00974555594690444 0.008993031707536538 0 0 0
7236 1 3100.0 0.00010764639260195754 0.012758592561271672 0.01832714429462863 0.009547403764575718 0 0 0
7237 1 3100.0 7.888957856271045e-05 0.0010846794070780577 0.0023537123752822913 0.0025577528546661 0 0 0
7238 1 3100.0 5.0768718197263473e-05 0.016716625089510558 0.009681680807332794 0.017785933715279534 0 0 0
7239 1 3100.0 8.01825759438527e-05 0.009945386882051764 0.0056261184730509 0.008474231593576319 0 0 0
7240 1 3100.0 1.7291837602444656e-05 0.0020312295583040227 0.008489416875416716 0.011724564045562937 0 0 0
7241 1 3100.0 8.230446209490958e-05 0.0028862270067662983 0.01790519381061189 0.0012321785861783674 0 0 0
7242 1 3100.0 8.515934291570945e-06 0.01772811240552122 0.0005196824090631439 0.003967101400531156 0 0 0
7243 1 3100.0 2.0316285510072795e-05 0.015433921131509909 0.0024513967202194967 0.009177749918108909 0 0 0
7244 1 3100.0 5.1107787382358606e-06 0.006460335771518412 0.003337290672798162 0.009766525856991372 0 0 0
7245 1 3100.0 8.078681850396181e-05 0.013469068421313915 0.013154032769869636 0.003486513794029434 0 0 0
7246 1 3100.0 0.00013785155309315958 0.016273598761047576 0.007546036824833726 0.010241572960609636 0 0 0
7247 1 3100.0 0.00016657671268322378 0.01982565081357081 0.011044015700302192 0.009255155002859542 0 0 0
7248 1 3100.0 0.00017141611706626873 0.009232484427326288 0.0008594419753782549 0.01818076536326257 0 0 0
7249 1 3100.0 0.0001083778997361017 0.007430265388083234 0.01814192594576403 0.00019033167539403195 0 0 0
7250 1 3100.0 0.00015832330275282415 0.010901892773262423 0.0011572313025645952 0.018743845137491433 0 0 0
7251 1 3100.0 0.00012667501677667638 0.015362785442191025 0.001739202972788615 0.008849600158685867 0 0 0
7252 1 3100.0 0.00020217444913798104 0.017851515583864348 0.019608117563949767 0.01163129429151483 0 0 0
7253 1 3100.0 1.1006256142266022e-05 0.016942780127653705 0.019108743685417803 0.012205987230204753 0 0 0
7254 1 3100.0 7.636268980472964e-05 0.00011900919141807944 0.003113947593638402 0.012616457275065995 0 0 0
7255 1 3100.0 7.259940408899065e-05 0.017619627027085985 0.005694090050164547 0.01718123354238453 0 0 0
7256 1 3100.0 7.693948515089509e-05 0.017417398525514514 0.01536237998606882 0.017653078441083464 0 0 0
7257 1 3100.0 6.107283379835715e-06 0.014442111337037948 0.009782523419824414 0.0014007236447950255 0 0 0
7258 1 3100.0 1.421251596899308e-05 0.014199763965249048 0.008250028568894978 0.011636778405555765 0 0 0
7259 1 3100.0 0.00012713977775770556 0.01331363356329179 0.0015649724454120523 0.009534271398047255 0 0 0
7260 1 3100.0 1.1566616922222203e-05 0.010992975229472369 0.010692313434938875 0.003832052229978173 0 0 0
7261 1 3100.0 8.958518727869267e-05 0.009691883670995015 0.016018337491773404 0.012875472736361058 0 0 0
7262 1 3100.0 7.211972849636128e-05 0.007074191681068811 0.0024175126698502097 0.018389962570257407 0 0 0
7263 1 3100.0 5.082712667636865e-05 0.006896371905741856 0.003674492475549869 0.00937753275293545 0 0 0
7264 1 3100.0 1.1677639002968617e-05 0.008017167688279129 0.004080112193975032 0.009705071119383714 0 0 0
7265 1 3100.0 4e-05 0.004887839668613009 0.003351534927866637 0.002958085229464866 0 0 0
7266 1 3100.0 9.32588844244522e-05 0.019646205752699496 0.008356905272298798 0.008016763079148495 0 0 0
7267 1 3100.0 0.000104381512632169 0.009022322855286832 0.012062764300834139 0.011750868920810243 0 0 0
7268 1 3100.0 4.726128513598773e-05 0.006935350168080119 0.0005389976843175139 0.00757795426575399 0 0 0
7269 1 3100.0 0.00011358393672871612 0.0032306745608225535 0.007891462503975663 0.0001709805413957575 0 0 0
7270 1 3100.0 7.2880038728327105e-06 0.01923073755278704 0.010373838153306092 0.010029587754811919 0 0 0
7271 1 3100.0 1.846053984004956e-05 0.01856755796210048 0.018255418799793047 0.013035595944133943 0 0 0
7272 1 3100.0 0.00010963194992580679 0.006639438585702762 0.014634834803091391 0.005925073694223735 0 0 0
7273 1 3100.0 8.75244862310645e-05 0.015255508403920932 0.009037194223964151 0.01931372548263786 0 0 0
7274 1 3100.0 9.583622323756401e-05 0.01043092157874262 0.008478883629963204 0.0073430244895455795 0 0 0
7275 1 3100.0 2.3265251725179555e-05 0.015361178314253128 0.001009233032265811 0.0073396837951590225 0 0 0
7276 1 3100.0 8.183152358090009e-06 0.019635597625753457 0.014427397680360925 0.015684939193337823 0 0 0
7277 1 3100.0 6.6148635815004625e-06 0.0011056597804290223 0.0192087318397787 0.0022368381986046576 0 0 0
7278 1 3100.0 0.00010122738449171422 0.009698832330462656 0.009850808869016878 0.012181992819198456 0 0 0
7279 1 3100.0 1.3276004522053213e-05 0.014743439449896725 0.0032137601385172202 0.013322655164747293 0 0 0
7280 1 3100.0 9.120742560656436e-05 0.014154099352478541 0.007897635952962424 0.006868661340368699 0 0 0
7281 1 3100.0 0.00011311042076734488 0.019392271609361224 0.0074918750285370575 0.009919625223359884 0 0 0
7282 1 3100.0 0.00010044330399786654 0.00976702136218897 0.006845537669763176 0.015028531392335323 0 0 0
7283 1 3100.0 0.0002034034053549419 0.009834942099757597 0.013158931772222951 0.01584198809845481 0 0 0
7284 1 3100.0 1.4679781287867258e-05 0.01881220413862354 0.008376559763256712 0.005154773591382752 0 0 0
7285 1 3100.0 0.0001170451902512027 0.010160228633036509 0.011129230528918531 0.0017522316885971024 0 0 0
7286 1 3100.0 0.00019114866463702763 0.008801795851669245 0.008990941551663521 0.009177544068910734 0 0 0
7287 1 3100.0 0.0001200864160524015 0.002065274348555757 0.013728361656016763 0.018328482008046657 0 0 0
7288 1 3100.0 1.158475477879147e-05 0.008187382553724558 0.0043895675497897454 0.01836766470377661 0 0 0
7289 1 3100.0 0.0001095339708304072 0.015615781081102243 0.010155904144716857 0.0071729242144377495 0 0 0
7290 1 3100.0 0.00018532356700926 0.0015931609491451476 0.009856785675150774 0.017163286577645397 0 0 0
7291 1 3100.0 6.2374623246250545e-06 0.003943471879840398 0.0031274523360295663 0.0011431690343797693 0 0 0
7292 1 3100.0 0.00018061725401120844 0.011900086894072672 0.011835072929048158 0.012613945680340797 0 0 0
7293 1 3100.0 0.0001019202946058219 0.015787812738008767 0.009698279931547269 0.013261065453202743 0 0 0
7294 1 3100.0 3.5022456648245575e-06 0.01688863273594324 0.01205356081381979 0.002017237527647458 0 0 0
7295 1 3100.0 8.871654837014475e-05 0.006945960874984905 0.004097755452079909 0.018604317734293663 0 0 0
7296 1 3100.0 0.00010195757355835916 0.01951283276692224 0.01584214243335766 0.005950945710574665 0 0 0
7297 1 3100.0 1.6835728179578868e-05 0.004964846154911869 0.015875983180590914 0.00972701296223107 0 0 0
7298 1 3100.0 0.00010672858183289369 0.0020883777267600738 0.014102558971174767 0.004383053050144603 0 0 0
7299 1 3100.0 8.30830891042887e-05 0.010641680986491712 0.01737094444046413 0.012474401025996484 0 0 0
7300 1 3100.0 6.409995087124756e-05 0.016106880302344338 0.002148261043127899 0.0021536680177410123 0 0 0
7301 1 3100.0 4.618833044898745e-05 0.005520306023324669 0.01395596414402988 0.009370726808155186 0 0 0
7302 1 3100.0 4.204579782452654e-06 0.006167713425299056 0.004164018986199379 0.002753831438891808 0 0 0
7303 1 3100.0 5.4744525958360337e-05 0.0013674598970885095 0.009293589339839314 0.01880355408471065 0 0 0
7304 1 3100.0 9.015092485481449e-05 0.0070220910687538276 0.012110197215198236 0.004102465659652002 0 0 0
7305 1 3100.0 0.00012586314299257818 0.00786727117519503 0.014849533183848048 0.015236713230956699 0 0 0
7306 1 3100.0 2.4209458207996924e-05 0.012662788580656028 0.019267525374896694 0.015890681558064085 0 0 0
7307 1 3100.0 9.275936813795103e-05 0.007640611405981826 0.004822014158472109 0.004775477598341787 0 0 0
7308 1 3100.0 0.00014017664490235593 0.007952134442754914 0.011983030483111836 0.01723454310736346 0 0 0
7309 1 3100.0 0.00014009145357227735 0.014739569426446069 0.018313896473733868 0.0047084142179816026 0 0 0
7310 1 3100.0 5.487083080474688e-05 0.0070610128210762575 0.00553707041153338 0.014509061269584683 0 0 0
7311 1 3100.0 1.678803731685618e-05 0.013784943948302987 0.0047316635988636615 0.00910475777928051 0 0 0
7312 1 3100.0 0.00021516183415071035 0.0027919902882323567 0.005426866436052324 0.011200007451597563 0 0 0
7313 1 3100.0 4.759621192427058e-06 0.0002954131462035723 0.003471325822824366 0.00840730031557801 0 0 0
7314 1 3100.0 0.000257913096311128 0.005602984577972574 0.014433488907767049 0.01904064126147654 0 0 0
7315 1 3100.0 8.587298227534976e-05 0.012368979432200979 0.00418724634247245 0.0025687622131519354 0 0 0
7316 1 3100.0 1.4574253660663491e-05 0.014992154034233596 0.005841758418939459 0.016010078763010478 0 0 0
7317 1 3100.0 6.708901937102457e-06 0.010020061820295776 0.005338664116729577 0.019768085790475204 0 0 0
7318 1 3100.0 4.482257583891056e-05 0.00031113612811335114 0.019889239414689397 0.018200394968030283 0 0 0
7319 1 3100.0 5.258568975614844e-06 0.011567832415772061 0.007567553828326503 0.015616641205971553 0 0 0
7320 1 3100.0 5.080739782149408e-05 0.01059298012547786 0.008333554165597737 0.006427932452740207 0 0 0
7321 1 3100.0 0.00011062217957701599 0.003940335407366913 0.011914405719631233 0.011477894672066068 0 0 0
7322 1 3100.0 6.649821769154856e-05 0.002598857132899403 0.011861348360684008 0.014761600068216694 0 0 0
7323 1 3100.0 1.3388120506184216e-05 0.014341831075663329 0.01088393001457976 0.005398688656336213 0 0 0
7324 1 3100.0 3.835520012870048e-06 0.006725971667480179 0.011249695938477716 0.007220133519109402 0 0 0
7325 1 3100.0 0.0001523124343224338 0.011287512434214048 0.012948119684271661 0.007077306301166157 0 0 0
7326 1 3100.0 0.00010661003011964912 0.007937820958425391 0.014630912463901987 0.014664351149039948 0 0 0
7327 1 3100.0 2.6360389122037355e-05 0.007934650511388554 0.0076544996440383005 0.011050434414751429 0 0 0
7328 1 3100.0 8.152512340646742e-05 0.006276227812564724 0.0017727791958810385 0.010223225886492817 0 0 0
7329 1 3100.0 0.00011291410287558725 0.004221092160475817 0.01860321710591929 0.0009796501097405223 0 0 0
7330 1 3100.0 2.4476029004050647e-05 0.013391516654311573 0.0032160786854853957 0.00718404575366155 0 0 0
7331 1 3100.0 5.217257058505188e-06 0.0036035621720615536 0.0018398762681341115 0.006564639250643143 0 0 0
7332 1 3100.0 7.893053349000692e-06 0.0014709545112114731 0.0004265512573121477 0.009506966668857957 0 0 0
7333 1 3100.0 8.706774812082664e-05 0.0011812798460020609 0.005692100308356484 0.007233958209338241 0 0 0
7334 1 3100.0 5.806274654200816e-06 0.010225053170241624 0.019159403475599454 0.014386548909354865 0 0 0
7335 1 3100.0 4.847943862479075e-05 0.009741198458708194 0.017135411668778647 0.012537194231835393 0 0 0
7336 1 3100.0 2.1198299409660655e-05 0.011902105108485442 0.014793587911955227 0.007045886569559658 0 0 0
7337 1 3100.0 1.6156746388433006e-05 0.006499263189423732 0.002100051266356904 0.014307341734636441 0 0 0
7338 1 3100.0 1.846914621893503e-05 0.017619889979738342 0.0028881912875955975 0.017035369112500524 0 0 0
7339 1 3100.0 6.639581423226888e-05 0.010541408243904251 0.01642736382972719 0.010703506769145804 0 0 0
7340 1 3100.0 8.371214247097119e-05 0.011507399403832837 0.00944910444119327 0.014766435432336873 0 0 0
7341 1 3100.0 0.00010872452558961482 0.006022709447716724 0.005210634121466245 0.008860208207198825 0 0 0
7342 1 3100.0 0.00011130980891547142 0.003643874531845994 0.0042478655389076095 0.004720104093873286 0 0 0
7343 1 3100.0 6.096231551260012e-06 0.009727393560292799 0.0061614170909931945 0.01471796025007464 0 0 0
7344 1 3100.0 1.749064492326338e-05 0.005119554776087614 0.015192447068350965 0.007944850802681579 0 0 0
7345 1 3100.0 0.0001186524605008818 0.019054204061529485 0.017375934718555686 0.014370873023619004 0 0 0
7346 1 3100.0 0.00011241066571814882 0.013951464913767529 0.0007331133359949881 0.005946407956846999 0 0 0
7347 1 3100.0 4e-05 0.009045112705062426 0.019376736038482535 0.015754042393766092 0 0 0
7348 1 3100.0 0.0002326538640321746 0.01674168017109402 0.00527806696692236 0.01932637497661289 0 0 0
7349 1 3100.0 8.727170398052224e-05 0.018150820066347384 0.002313104546909245 0.0023666668233450943 0 0 0
7350 1 3100.0 7.9481505708504e-06 0.010540921768451802 0.008457796727274267 0.002252527159596285 0 0 0
7351 1 3100.0 0.0001315983547195843 0.005071871914622693 0.0024535641824760973 0.017783206084549613 0 0 0
7352 1 3100.0 5.9022891473233387e-05 0.007239239702210906 0.010849929152690414 0.00496176201128303 0 0 0
7353 1 3100.0 0.00016481655870180658 0.019828249639422292 0.011079223204804693 0.0025910063814799903 0 0 0
7354 1 3100.0 7.978039379027163e-06 0.014040073411391627 0.002285102380215944 0.00648276639380625 0 0 0
7355 1 3100.0 6.024947310771164e-05 0.005822752104941435 0.0010977599284348115 0.009165386872702809 0 0 0
7356 1 3100.0 2.6843543418502532e-05 0.011259031544877096 0.01951830401941101 0.0024636634795147314 0 0 0
7357 1 3100.0 6.536737334191236e-05 0.000542985373889931 0.010847538757416621 0.0040540611113572145 0 0 0
7358 1 3100.0 0.00014083946558685525 0.002350932170731148 0.0031999426137028953 0.018161808766673733 0 0 0
7359 1 3100.0 1.305217396763874e-05 0.0017327833830188357 0.005914575954569203 0.002698097245847106 0 0 0
7360 1 3100.0 4e-05 0.004670484184469185 0.008925330329610742 0.012525354550378336 0 0 0
7361 1 3100.0 9.77774559888741e-06 0.007330688373990702 0.0062082028704988565 0.0026010156411484997 0 0 0
7362 1 3100.0 2.0641701990111898e-05 0.01615602077554275 0.01535672483639625 0.0010658456602009121 0 0 0
7363 1 3100.0 8.8299994379258e-05 0.0051868225416044356 0.011569514734342421 0.01772598046694315 0 0 0
7364 1 3100.0 5.114475840493169e-05 0.018952918578277033 0.007482569125309434 0.01421647763863637 0 0 0
7365 1 3100.0 2.4003695408125975e-05 0.009554984280382423 0.0027574877585100897 0.01235350367011782 0 0 0
7366 1 3100.0 0.0001350661959123767 0.000168208035175891 0.012493770448309982 0.014300962208689521 0 0 0
7367 1 3100.0 7.316131669813502e-05 0.0039526936211509165 0.016880717328717633 0.008827015279519207 0 0 0
7368 1 3100.0 6.207681084269486e-05 0.0022281070692592424 0.0077084001823680085 0.016656592460371548 0 0 0
7369 1 3100.0 4.991418624558332e-06 0.01904147741681852 0.01674075770809794 0.007213825224389713 0 0 0
7370 1 3100.0 3.911907255420559e-06 0.0156067360132487 0.0020635597105219117 0.012331429627646726 0 0 0
7371 1 3100.0 8.994121077017703e-05 0.010446930491946184 0.008474363090786842 0.012512023099568765 0 0 0
7372 1 3100.0 3e-05 0.019582124313546983 0.002020623309403432 0.010400888092947744 0 0 0
7373 1 3100.0 7.921165610912617e-05 0.002834543075697047 0.018469381279875255 0.013679399469170907 0 0 0
7374 1 3100.0 4.979506361158312e-05 0.00440272350997043 0.016649202140822952 0.011112258056748611 0 0 0
7375 1 3100.0 3e-05 0.01587763388716655 0.017643470235161822 0.013683049844860252 0 0 0
7376 1 3100.0 7.4247601229447835e-06 0.005577482295637056 0.00954133625508161 0.005002960990325638 0 0 0
7377 1 3100.0 7.445201023439959e-05 0.018097892939910838 0.019138893907163286 0.013868921425815157 0 0 0
7378 1 3100.0 8.18329487007128e-06 0.0022152775508825283 0.010321609010377994 0.006283100840056335 0 0 0
7379 1 3100.0 1.3671037512405673e-05 0.0065446330756191795 0.006562217951018242 0.012985507075059632 0 0 0
7380 1 3100.0 1.3110806538687245e-05 0.010794360858836177 0.018955798986271644 0.005602342317150541 0 0 0
7381 1 3100.0 8.832142452221832e-05 0.007262237601012932 0.013592110059650424 0.01185797592207525 0 0 0
7382 1 3100.0 0.00013643886104324694 0.0048982554397107945 0.01176378302194046 0.0002587377158117474 0 0 0
7383 1 3100.0 9.70864067113709e-05 0.011875395401543807 0.006279303378471408 0.0010741086517410436 0 0 0
7384 1 3100.0 0.00017893589913799235 0.008700897132667963 0.014972184115827626 0.013947566691250558 0 0 0
7385 1 3100.0 4.806520172785079e-06 0.013632357689213857 0.007167463847453424 0.01032114423902898 0 0 0
7386 1 3100.0 8.188346533364282e-05 0.01165733556253705 0.011954019839116217 0.003118063854062957 0 0 0
7387 1 3100.0 7.554001826664965e-05 0.011536658608364676 0.0015057423928817807 0.006445149123635954 0 0 0
7388 1 3100.0 1.874872651972168e-05 0.018677157901646733 0.00826507795466025 0.008236584831562943 0 0 0
7389 1 3100.0 7.656478568819558e-05 0.0071606535036317425 0.017398271721210404 0.016756987282128263 0 0 0
7390 2 7870.0 0.0003 0.008522929560360158 0.01860122876518615 0.018335984246877667 0 0 0
7391 1 3100.0 8.734311342741909e-05 0.0015895923860876646 0.015406137663115443 0.0016191759205703463 0 0 0
7392 1 3100.0 4.310906070097471e-06 0.003340505724814941 0.017059894122055417 0.01205163247502154 0 0 0
7393 1 3100.0 0.00013070498303383726 0.011666367281410371 0.015260068313522421 0.012888367692836094 0 0 0
7394 1 3100.0 5.279331441825145e-05 0.01745707725037075 0.009353164580210372 0.007870576801690446 0 0 0
7395 1 3100.0 0.00013251476827619318 0.01212487540509359 0.017410431937108797 0.014515609022162878 0 0 0
7396 1 3100.0 6.75338672093155e-05 0.0132275510224675 0.015075500925471014 0.004675002887251806 0 0 0
7397 1 3100.0 1.4649582861203399e-05 0.01811317571674137 0.0021353668920832854 0.01645443337274755 0 0 0
7398 1 3100.0 1.7721716822956158e-05 0.015458174681856202 0.013584566963203473 0.0016904196735208327 0 0 0
7399 1 3100.0 6.494827951307688e-05 0.011800791356099759 0.005123194118802016 0.008234681455200817 0 0 0
7400 1 3100.0 4e-05 0.004300309219203339 0.0019219535241078135 0.008423394475058438 0 0 0
7401 1 3100.0 0.00010192054975004503 0.01722466638012696 0.015654299853761183 0.012640214757718787 0 0 0
7402 1 3100.0 8.257240899693755e-05 0.011841155542093765 0.002605465838605918 0.0013467903807176346 0 0 0
7403 1 3100.0 1.0257149111075052e-05 0.011887378123229833 0.008358232408106701 0.007327290654632528 0 0 0
7404 1 3100.0 7.73979582388161e-05 0.01677522252323892 0.0032338129884065653 0.00778928225827172 0 0 0
7405 1 3100.0 0.00011179655347984756 0.019529762003618684 0.007491700062094192 0.0059898173459623965 0 0 0
7406 1 3100.0 1.5367564959098296e-05 0.004270582196355912 0.003763673711968976 0.010892427172016035 0 0 0
7407 1 3100.0 0.0001844077938150218 0.0194685708912777 0.0037768930924931172 0.0014639064815562123 0 0 0
7408 1 3100.0 1.932839196067334e-05 0.006526264621835162 0.010772073026698406 0.005395137708614753 0 0 0
7409 1 3100.0 7.606250775768815e-05 0.01950488555426456 0.00522719413848885 0.016912143242290664 0 0 0
7410 1 3100.0 0.00013290572159492674 0.014671382523722515 0.0014504062159494454 0.011754839476556558 0 0 0
7411 1 3100.0 9.038273534057233e-05 0.018662943051522298 0.017295977316562246 0.0030175158748195494 0 0 0
7412 1 3100.0 5.1840438778468676e-05 0.010246021607229542 0.018359587591081018 0.016334870713943572 0 0 0
7413 1 3100.0 0.00019587187889615724 0.009484215671606842 0.013897033561370157 0.006215483138468347 0 0 0
7414 1 3100.0 9.913225292189774e-05 0.008792907015739327 0.0010976074983431328 0.013998424645096453 0 0 0
7415 1 3100.0 8.455806226783327e-06 0.005011792019317344 0.019905152900641165 0.0014498944036229644 0 0 0
7416 1 3100.0 4.673691673287929e-05 0.015726606188620495 0.0006642591939071189 0.001709796758548072 0 0 0
7417 1 3100.0 1.974381875499912e-05 0.008760975107048246 0.004549403878018973 0.0057891098592171035 0 0 0
7418 1 3100.0 6.882139103361374e-05 0.013025992825097109 0.00978797022726208 0.009941985458563047 0 0 0
7419 1 3100.0 7.37423960147914e-05 0.013332989252541946 0.004403387523347861 0.013195133490799359 0 0 0
7420 1 3100.0 4.2966208545829994e-05 0.011302103092867818 0.01679848234120273 0.008973546388730177 0 0 0
7421 1 3100.0 8.069930496131401e-06 0.014366415699454646 0.00270281434818323 0.000561852651215978 0 0 0
7422 1 3100.0 7.506163182480523e-06 0.007156011614554048 0.019407719780684517 0.004745684473697065 0 0 0
7423 1 3100.0 4.686083852145598e-05 0.013144262758047252 0.006729851384701736 0.004183631760103588 0 0 0
7424 1 3100.0 8.627293747959595e-05 0.01659176775353702 0.0005449914161389719 0.009900367012348003 0 0 0
7425 1 3100.0 9.223441310700458e-06 0.016664036987979344 0.017544044235729687 0.008821098122283554 0 0 0
7426 1 3100.0 1.3059055543165973e-05 0.01593001900410584 0.005798087368272436 0.016649761761815273 0 0 0
7427 1 3100.0 6.145695682855147e-05 0.0068159481814527014 0.010936697732308012 0.012328150588871534 0 0 0
7428 1 3100.0 9.343589376588104e-05 0.004972669399572744 0.004217609597778377 0.008257847587662789 0 0 0
7429 1 3100.0 0.0001204936856190936 0.011752928644557245 0.004491178993889138 0.002062142039360189 0 0 0
7430 1 3100.0 7.684148198539417e-05 0.00908016782487647 0.01828575940751784 0.010956858178091815 0 0 0
7431 1 3100.0 8.329661944535862e-05 0.0007270167377733212 0.019596620626362273 0.016590961512211688 0 0 0
7432 1 3100.0 6.265075910335088e-05 0.002509211505796908 0.006969022201385563 0.010522390557120892 0 0 0
7433 1 3100.0 6.63190352186134e-06 0.012561594493648591 0.0077205433759130904 0.019402422599469414 0 0 0
7434 1 3100.0 0.00012105670033868441 0.013311383190385358 0.017596481178548593 0.005218500848087206 0 0 0
7435 1 3100.0 0.00014628899254410686 0.01523622630126867 0.006851049024867644 0.0009613645395200877 0 0 0
7436 1 3100.0 7.299873787236742e-05 0.017560593931949153 0.010756108928201235 0.005769687576178762 0 0 0
7437 1 3100.0 4.1934912507680895e-06 0.017069796670127698 0.012739395651954137 0.001851656094234788 0 0 0
7438 1 3100.0 2.5e-06 0.008033950244939086 0.004046998890446043 0.014448913778301072 0 0 0
7439 1 3100.0 0.00010304478896431354 0.005537088597233003 0.010255516362022658 0.0019605217811419036 0 0 0
7440 1 3100.0 0.00010085293489403209 0.0029032883412312455 0.0016401847481519046 0.004390083834393072 0 0 0
7441 1 3100.0 0.00014149528991457377 0.01813795037892535 0.006543116403945763 0.004876988040420911 0 0 0
7442 1 3100.0 1.390862232243587e-05 0.013760569359250477 0.01767786301488359 0.009188995193570942 0 0 0
7443 1 3100.0 0.0001484377324600265 0.012743013639872763 0.019091686251091724 0.010164669032943486 0 0 0
7444 1 3100.0 0.00012307696511327756 0.003927309091823972 0.007060197956290113 0.014657261102491444 0 0 0
7445 1 3100.0 1.2066839383235918e-05 0.0069468894924530995 0.010316788160125443 0.0036586481317200464 0 0 0
7446 1 3100.0 4e-05 0.004207207043102465 0.006851081539371282 0.008309998290690153 0 0 0
7447 1 3100.0 5.571441414167865e-05 0.0018047072971368162 0.013337470413762332 0.00032664961262182673 0 0 0
7448 1 3100.0 2.6503840504230292e-05 0.0040833627418041295 0.0016867689339430875 0.012055822956865334 0 0 0
7449 1 3100.0 3.553539148129267e-06 0.004019970346721623 0.0060596126434056315 0.01184465906611931 0 0 0
7450 1 3100.0 0.00013242571185417766 0.0010141290652923099 0.013391934664852431 0.0026162687219720413 0 0 0
7451 1 3100.0 1.5272258438822004e-05 0.013290658958993704 0.01043725119945607 0.009776547347262268 0 0 0
7452 1 3100.0 5.394787149537452e-05 0.017351845520459888 0.0032790843411208293 0.009415978856237118 0 0 0
7453 1 3100.0 0.0001088604904112796 0.003023449248197444 0.008977013530276533 0.0005329668795366441 0 0 0
7454 1 3100.0 0.0001066936437240599 0.010559542433135434 0.015208912978348825 0.007413543735207108 0 0 0
7455 1 3100.0 0.00016435957914572152 0.01344692182653637 0.0034769198003926404 0.007058503758346105 0 0 0
7456 1 3100.0 8.69637503133787e-05 0.006126864432179155 0.006601223701759877 0.007715678554570967 0 0 0
7457 1 3100.0 4e-05 0.01778914381019548 0.005526990170665974 0.00820163163288649 0 0 0
7458 1 3100.0 0.00011293155342739593 0.004694357984656888 0.0047229190053614456 0.010895299463213928 0 0 0
7459 1 3100.0 5.305673221439487e-05 0.0027917759550929806 0.004988796686161504 0.006461779966574864 0 0 0
7460 1 3100.0 4.8732761407188045e-05 0.01940557021435181 0.01598878548657361 0.00615412976301205 0 0 0
7461 1 3100.0 9.505728004297155e-05 0.01215773748726386 0.013205378159656611 0.001508300315848458 0 0 0
7462 1 3100.0 9.463829433278195e-05 0.017082198016168827 0.010206260324695671 0.017888812261449137 0 0 0
7463 1 3100.0 4e-05 0.015800796422356104 0.002778598417535347 0.017709502555227973 0 0 0
7464 1 3100.0 0.0001479361742123387 0.0025839614668381242 0.002208713668481083 0.0012500484084952013 0 0 0
7465 1 3100.0 0.00015214884391117042 0.0012132699066329468 0.002846528400529585 0.009618598409217806 0 0 0
7466 1 3100.0 1.0114922850224922e-05 0.016532472759787083 0.007493514670471369 0.008991196796433412 0 0 0
7467 1 3100.0 1.1049260456414983e-05 0.010352405038113181 0.014456704686951628 0.019419439226215134 0 0 0
7468 1 3100.0 8.092386487797625e-06 0.009701466369827124 0.015433308317423643 0.009741485838067913 0 0 0
7469 1 3100.0 5.146476832316161e-05 0.01259847496430144 0.014972027227529001 0.017077375889456597 0 0 0
7470 1 3100.0 7.989050728217273e-05 0.006183455302443655 0.009582684411701953 0.014614543536282637 0 0 0
7471 1 3100.0 3.110669701517213e-06 0.013752064714953422 0.010667930100476869 0.018411695735118416 0 0 0
7472 1 3100.0 4.828332539005819e-05 0.013341480189243284 0.017921160304586025 0.010816353446450815 0 0 0
7473 1 3100.0 0.00017754640200005385 0.014796254884126978 0.010635467066506437 0.01702614725040185 0 0 0
7474 1 3100.0 0.00011843986423963325 0.0066105126477642604 0.015057959945801168 0.006711128141246207 0 0 0
7475 1 3100.0 2.0322629268016197e-05 0.01687682936203424 0.01799372417898585 0.004415969506204245 0 0 0
7476 1 3100.0 6.065705680184309e-05 0.00908961784919297 0.0032591203470068953 0.00625555554283258 0 0 0
7477 1 3100.0 1.4294928160938477e-05 0.008934847787259257 0.018163843886237915 0.006547139725320393 0 0 0
7478 1 3100.0 7.259235256552683e-05 0.0036346268734294028 0.017186683272353072 0.0010625246481720044 0 0 0
7479 1 3100.0 7.5730298034641435e-06 0.019112858892536194 0.008266059855616322 0.0003097571745399199 0 0 0
7480 1 3100.0 1.6827097403732785e-05 0.00929088583806561 0.0072804631841526185 0.010947762261715177 0 0 0
7481 1 3100.0 7.73404115712377e-06 0.005934458594562137 0.0029746579891479167 0.017899831715624866 0 0 0
7482 1 3100.0 5.160381921375979e-05 0.0049613651474572865 0.0036494937213392502 0.00603931675339044 0 0 0
7483 1 3100.0 4.902257844701169e-05 0.004332717821090654 0.008331995867925896 0.0006535488394575735 0 0 0
7484 1 3100.0 2.5586408915206307e-05 0.01222138560562109 0.015477607708390387 0.01719548621302577 0 0 0
7485 1 3100.0 6.169392371176316e-05 0.012419177090906966 0.001748402578233937 0.00823314726810388 0 0 0
7486 1 3100.0 6.0831461417729214e-05 0.005736234737425281 0.017427328914373454 0.016986619131311626 0 0 0
7487 1 3100.0 6.155080723853793e-05 0.009499813470572162 0.017799195666802086 0.017902154777605667 0 0 0
7488 1 3100.0 7.400545593747135e-06 0.01364255585523345 0.012826223361642046 0.010996236776202642 0 0 0
7489 1 3100.0 3e-05 0.002642818542769246 0.01336050277528709 0.012952753312052187 0 0 0
7490 1 3100.0 5.847699201190778e-06 0.006693692045083273 0.011995934996365558 0.004820455669373421 0 0 0
7491 1 3100.0 0.00017944785159869554 0.01814904227927858 0.009905324408515655 0.01700824355306977 0 0 0
7492 1 3100.0 1.2943655383320859e-05 0.013648377513094263 0.0011149442833169364 0.003914581324768467 0 0 0
7493 1 3100.0 4e-05 0.018903035156563004 0.017544989403794897 0.006585717721734143 0 0 0
7494 1 3100.0 8.67851930911354e-05 0.002615173734575113 0.00815954394407639 0.014875711982442748 0 0 0
7495 1 3100.0 4.8987181102198366e-05 0.005400916765821042 0.019677668606465658 0.009718378421984667 0 0 0
7496 1 3100.0 1.7094421876434336e-05 0.012543631820169153 0.01886203581896994 0.005487598015507884 0 0 0
7497 1 3100.0 4e-05 0.006410064047757968 0.007305080989471864 0.0025879942778810456 0 0 0
7498 1 3100.0 7.008537913791634e-05 0.011724905652619832 0.00620108370873621 0.011807521077667334 0 0 0
7499 1 3100.0 0.00011560824357075212 0.004594122201246426 0.009289758347392029 0.0017562854873172757 0 0 0
7500 1 3100.0 1.0266401628246087e-05 0.005022473910725171 0.015748702283369873 0.008665272909511197 0 0 0
7501 1 3100.0 8.190172898370918e-06 0.0016556964377396008 0.019487777978933155 0.0046839314784101055 0 0 0
7502 1 3100.0 9.376428681141836e-05 0.002628353549218203 0.0024581884451718343 0.012081317596167762 0 0 0
7503 1 3100.0 0.0001457946639760612 0.0031809840736348382 0.011330340489494885 0.013623812067585093 0 0 0
7504 1 3100.0 0.0001722573879107332 0.011048873615914574 0.008972328972290406 0.004880628990760314 0 0 0
7505 1 3100.0 8.697936194572186e-05 0.011936869189659383 0.018338970134786935 0.019177404631005805 0 0 0
7506 1 3100.0 1.4183406128330926e-05 0.0112316851686116 0.008479856053713665 0.01543727817230856 0 0 0
7507 1 3100.0 9.703692232799341e-06 0.008334624374837327 0.016471058689481576 0.01949227039411286 0 0 0
7508 1 3100.0 0.00011114466172109198 0.009057787377198215 0.004552465918736171 0.00841869120744918 0 0 0
7509 1 3100.0 7.70397333727746e-05 0.003419630996259738 0.011124796591106493 0.01707541297500812 0 0 0
7510 2 7870.0 0.0003 0.0037290122476236172 0.010008342833997938 0.004969414606672321 0 0 0
7511 1 3100.0 1.8114176158688415e-05 0.011854402406561352 0.014377686458168382 0.004780672465296344 0 0 0
7512 1 3100.0 4e-05 0.013354339191047306 0.015640617772433925 0.004157405638706603 0 0 0
7513 1 3100.0 0.0001784413027153402 0.0017394180486549784 0.011765106066543315 0.00033865605211700315 0 0 0
7514 2 7870.0 0.0003 0.008230953148703797 0.018332277476650657 0.014368178127625995 0 0 0
7515 1 3100.0 2.4527769613077132e-05 0.004773694606723466 0.008128421169495074 0.006186736919221222 0 0 0
7516 1 3100.0 0.0001889457559517172 0.012924044846092853 0.012110273272255228 0.017811179108206805 0 0 0
7517 1 3100.0 1.1516359834450564e-05 0.01426717472273743 0.009129252414069783 0.010606693866040061 0 0 0
7518 1 3100.0 8.190175918697313e-05 0.014136024340034158 0.006464503307759828 0.01945820348100613 0 0 0
7519 1 3100.0 1.12889875472539e-05 0.006318975373648064 0.011270968596979432 0.016212449509355985 0 0 0
7520 1 3100.0 7.984641934820435e-05 0.0017072514768017107 0.00742549545530836 0.0005897393051619138 0 0 0
7521 1 3100.0 5.231014157395795e-06 0.013236297277352418 0.007211757131664476 0.0040590937539911305 0 0 0
7522 1 3100.0 0.00011141237786850017 0.012439252812401274 0.012997503805611644 0.012798761630351822 0 0 0
7523 1 3100.0 0.00012313457886976278 0.006474920264585715 0.01334061517775291 0.003771292755982071 0 0 0
7524 1 3100.0 0.00010880851401200407 0.0009873940167329097 0.013718775353070558 0.016316043167423987 0 0 0
7525 1 3100.0 9.746900442431099e-06 0.011376235284586245 0.015740092019268473 0.006711041686767889 0 0 0
7526 1 3100.0 0.00016178922858226907 0.009186551043261434 0.018459413059392915 0.014744241217430464 0 0 0
7527 1 3100.0 0.00012728217959621823 0.01844653443134764 0.0018807363149040376 0.009955513157315615 0 0 0
7528 1 3100.0 1.3415980025563754e-05 0.0034648502664943433 0.019728139767442646 0.0009310609154856443 0 0 0
7529 1 3100.0 4e-05 0.012412397659586205 0.014532332350743256 0.0055214092572311736 0 0 0
7530 1 3100.0 4.091542760255751e-05 0.002639744306813894 0.007787045065310505 0.018844863569132873 0 0 0
7531 1 3100.0 1.7805528857252553e-05 0.006022650759561083 0.00893590627035772 0.010928662760414527 0 0 0
7532 1 3100.0 1.6268354884328895e-05 0.007436045709036565 0.011024538113835605 0.009883871663956052 0 0 0
7533 1 3100.0 5.813522921155752e-05 0.010894014274671324 0.006659622592188056 0.010087967188510247 0 0 0
7534 1 3100.0 1.369942583806092e-05 0.004729951576368527 0.01798742788537862 0.016056118037943965 0 0 0
7535 1 3100.0 0.00013455392166269404 0.016252609593580727 0.010354425998729159 0.01735451427485755 0 0 0
7536 1 3100.0 0.00012248439500050668 0.011514420805162033 0.01535877066173127 0.011856551866013053 0 0 0
7537 1 3100.0 4.965933636296358e-05 0.004137924124127359 0.017550575103462626 0.005934432613949577 0 0 0
7538 1 3100.0 0.0002085729573493167 0.018019162216989265 0.014722291234016579 0.003149143229842888 0 0 0
7539 1 3100.0 1.840168308503714e-05 0.0024144789940355607 0.01949558310074351 0.007598092548562068 0 0 0
7540 1 3100.0 6.782231675398183e-06 0.018487779827333434 0.00618161253296193 0.00655624967765827 0 0 0
7541 1 3100.0 4.322256831991003e-06 0.012058384918182933 0.009126547896083421 0.007844204398138838 0 0 0
7542 1 3100.0 0.0001477884834705787 0.016106990328304278 0.0074610709027790835 0.01508739250108339 0 0 0
7543 2 7870.0 0.0003 0.01001261270077535 0.01820037629039223 0.0035899113194073906 0 0 0
7544 1 3100.0 1.3359193594025714e-05 0.019148880962599982 0.01808611231989463 0.0016958181921437141 0 0 0
7545 1 3100.0 1.4284317323231679e-05 0.011125251220744321 0.0073982516739363735 0.004343272762517242 0 0 0
7546 1 3100.0 8.667243704921426e-05 0.018714299708046105 0.017664796159658398 0.007132798757454864 0 0 0
7547 1 3100.0 5.978815717607939e-05 0.00016901479766079984 0.005153483729509839 0.009557763799042001 0 0 0
7548 1 3100.0 4.734313884164209e-05 0.01791392567239038 0.007556555449170817 0.019231559551599636 0 0 0
7549 1 3100.0 1.1230459766698621e-05 0.00675344139993807 0.0030413758737374416 0.015782891424326054 0 0 0
7550 1 3100.0 0.00013245161408442655 0.006673735373669314 0.009916795878346738 0.00045962927131124075 0 0 0
7551 1 3100.0 3e-05 0.005491601612549143 0.006239640165738154 0.003740466318372057 0 0 0
7552 1 3100.0 1.0141578350097316e-05 0.0031525016879510306 0.008622972115891291 0.01258002025178691 0 0 0
7553 1 3100.0 8.666979508412193e-05 0.018944831099244493 0.00399451903319526 0.00997470510350358 0 0 0
7554 1 3100.0 2.2803738265933614e-05 0.0172308709355981 0.006039058424055776 0.010745321350671291 0 0 0
7555 1 3100.0 1.2257761992287727e-05 0.004952714103468281 0.014360973107078463 0.006297324324207567 0 0 0
7556 1 3100.0 0.00011659013317061861 0.0024517528413993102 0.0010816487836129147 0.00405301991476667 0 0 0
7557 1 3100.0 0.00013403331679963848 0.0082606263929856 0.002661377312994937 0.006611760380896066 0 0 0
7558 1 3100.0 5.3908274907309874e-05 0.017976133858419552 0.010538083020688989 0.002995681893819764 0 0 0
7559 1 3100.0 7.347216804206388e-05 0.0036137961989138167 0.006866781277704891 0.015409846253484766 0 0 0
7560 1 3100.0 8.197575624787834e-05 0.014808692618137017 0.011070099254973933 0.01572545400348702 0 0 0
7561 1 3100.0 5.882542321296217e-05 0.006607496275747068 0.01594333423792592 0.003993458663570481 0 0 0
7562 1 3100.0 7.703214009306164e-05 0.015221269410449956 0.002378920212182455 0.016663472546507543 0 0 0
7563 1 3100.0 2.1021953613799733e-05 0.0014145534932954488 0.0053015121095031335 0.007229753668213974 0 0 0
7564 1 3100.0 2.8354006808153525e-05 0.010464941062627046 0.004726973216973532 0.012298617550096811 0 0 0
7565 1 3100.0 2.833931445440836e-05 0.012443129850983609 0.016526043260166046 0.002691442754992402 0 0 0
7566 1 3100.0 6.897064847388372e-06 0.0002860666868883176 0.006113112834228274 0.005214130251374073 0 0 0
7567 1 3100.0 7.286977539523382e-05 0.01667598813288455 0.014033197927077882 0.011981988187094306 0 0 0
7568 1 3100.0 0.00023656521045307906 0.005738878982921928 0.011458171299746838 0.013506041096743105 0 0 0
7569 1 3100.0 1.3838855394217623e-05 0.0021060776220018177 0.014807022554480506 0.007286550611029045 0 0 0
7570 1 3100.0 1.3601215903095e-05 0.0015728978753641702 0.011948360155187555 0.008276101863779244 0 0 0
7571 1 3100.0 4e-05 0.013779985486183546 0.009544873494010434 0.018147379204287124 0 0 0
7572 1 3100.0 0.00021474193120244226 0.013228404819341445 0.0007427676937586549 0.013986195342570078 0 0 0
7573 1 3100.0 0.00013879899507203582 0.012888650800641208 0.014332034251241722 0.012750307655098528 0 0 0
7574 2 7870.0 0.0003 0.0147900884565445 0.002497553651284096 0.005557108221930746 0 0 0
7575 1 3100.0 6.095200689058635e-05 0.006719695424246466 0.011751009564661763 0.013928442726337812 0 0 0
7576 1 3100.0 3.5770902560484264e-06 0.009545698871706957 0.012376502429556 0.0026587000139797197 0 0 0
7577 1 3100.0 9.51519966299321e-05 0.011930108887157093 0.0004280596652916267 0.013223693607977987 0 0 0
7578 1 3100.0 7.678826415879623e-05 0.008519595547567819 0.0175436908711415 0.0088951641003496 0 0 0
7579 1 3100.0 7.085449720608335e-05 0.01215667019389971 0.010939189630459128 0.018862076854089322 0 0 0
7580 1 3100.0 2.493527056824029e-05 0.0050988960889315725 0.005818770568354886 0.013567668147476213 0 0 0
7581 1 3100.0 1.2219042595542114e-05 0.009526859802215277 0.01855516119055132 0.00342498961584274 0 0 0
7582 1 3100.0 6.340555859803832e-06 0.003874740974833561 0.005648548878959989 0.015956020719926682 0 0 0
7583 1 3100.0 0.00013933923474275024 0.005653154931937321 0.007070560630595838 0.0107497992011118 0 0 0
7584 1 3100.0 1.0258860182529998e-05 0.011663418064030566 0.014465193262504738 0.0028776999044138082 0 0 0
7585 1 3100.0 0.00010521925362616447 0.008181029092780295 0.0049086634149260715 0.01090591710120518 0 0 0
7586 1 3100.0 9.185460873814254e-05 0.01892347804219272 0.0008210169745422871 0.017122203551303054 0 0 0
7587 1 3100.0 4.784414379361469e-05 0.016727028542993506 0.011016769748253552 0.012936662600923658 0 0 0
7588 1 3100.0 6.510883899852722e-05 0.004273796790020554 0.006041444911902475 0.015188136848270684 0 0 0
7589 1 3100.0 4e-05 0.004714522750205624 0.005095011535142156 4.4087703003483904e-05 0 0 0
7590 1 3100.0 0.00010112236353618234 0.019765553985383447 0.019353078968246264 0.0041981558544109945 0 0 0
7591 1 3100.0 7.254738402184537e-06 0.009115958694598955 0.0027870359669945736 0.0090954053635961 0 0 0
7592 1 3100.0 8.259986651691707e-05 0.018841959306496854 0.013471513407203086 0.00801298237710288 0 0 0
7593 1 3100.0 1.1838405654748107e-05 0.005660901624949483 0.013659944883328825 0.0060515617684764 0 0 0
7594 1 3100.0 0.00013221409049967757 0.003614164372597486 0.01044589498527892 0.00016229442529141122 0 0 0
7595 1 3100.0 5.865652672825505e-06 0.002518221664905534 0.0036336038569087397 0.017078809844754354 0 0 0
7596 1 3100.0 1.5213423008913408e-05 0.0012222602027644905 0.009045575428051934 0.006434352018351353 0 0 0
7597 1 3100.0 0.00010884858879579467 0.009132513866573055 0.012670361305394128 0.003930644514657034 0 0 0
7598 1 3100.0 8.163164460463764e-05 0.015892575288930143 0.018944579744648256 0.0014840104657744574 0 0 0
7599 1 3100.0 6.428971360264247e-05 0.01141447941080176 0.01374027303260926 0.0005552300132237656 0 0 0
7600 1 3100.0 8.489206198444413e-06 0.011846890956728319 0.011551140586565298 0.015047558459210563 0 0 0
7601 1 3100.0 1.6283762289122832e-05 0.004622591190379423 0.00035082152087094384 0.0006118852220404797 0 0 0
7602 1 3100.0 7.05592896279706e-06 0.0005668620142547207 0.009635904526800724 0.010453740555819904 0 0 0
7603 1 3100.0 0.00010884299575760423 0.013358382814275508 0.002158800006769376 0.014308951276073827 0 0 0
7604 1 3100.0 0.00018261364884212785 0.0010719164366138503 0.0035810352246212806 0.006975077924491606 0 0 0
7605 1 3100.0 4.77537322074742e-05 0.0029839409673089916 0.015923562178242225 0.016953372164678605 0 0 0
7606 1 3100.0 0.0001504691533645316 0.015195123840464033 0.004954632366748719 0.01765447042549459 0 0 0
7607 1 3100.0 6.035506982800647e-05 0.003251831492460073 0.004909046576859866 0.006770381161815085 0 0 0
7608 1 3100.0 0.00013173182992029484 0.007681957652195935 0.0014414334917742136 0.0026313722192491183 0 0 0
7609 1 3100.0 7.519147851377027e-06 0.013962042592182833 0.000710268249248671 0.01726144633502152 0 0 0
7610 1 3100.0 9.604289983973742e-05 0.01577038219790343 0.01916359645567318 0.0077836390967738235 0 0 0
7611 1 3100.0 5.697273021149787e-06 0.014771576046032223 0.0010246003867282211 0.01716766116420143 0 0 0
7612 1 3100.0 6.461143874935397e-05 0.010166732280939008 0.0033275038572831606 0.007414083609777828 0 0 0
7613 1 3100.0 0.00012420883577379883 0.004398741813542822 0.007776736900459532 0.015624220927723429 0 0 0
7614 1 3100.0 0.00013658395925614394 0.010035417560922093 0.006110638382609986 0.018067625567650392 0 0 0
7615 1 3100.0 1.0542648862282479e-05 0.00846495424281474 0.008384278003704405 0.01214747650024189 0 0 0
7616 1 3100.0 0.00010284350792536815 0.0048696830862762185 0.018804535249611735 0.004745949929522577 0 0 0
7617 1 3100.0 4e-05 0.01441174566518932 0.0161433474439715 0.015014379301015238 0 0 0
7618 1 3100.0 0.00011807693835038874 0.0058843901275262645 0.010939844195870714 0.00823273262695652 0 0 0
7619 1 3100.0 0.000140014426087399 0.013421397373654494 0.014764401195407261 0.01334547446588131 0 0 0
7620 1 3100.0 7.18825105044176e-05 0.018566020929966676 0.010578572027041367 0.019831388906425395 0 0 0
7621 1 3100.0 0.00015141634166352492 0.01741966392745976 0.01241298952837708 0.009345020876303874 0 0 0
7622 1 3100.0 1.8275032035989313e-05 0.007104751603154001 0.014255292584581188 0.0016037218818719845 0 0 0
7623 1 3100.0 1.114804600814552e-05 0.007009985920601883 0.004544016387345881 0.017392796858525336 0 0 0
7624 1 3100.0 5.6638291943961684e-05 0.0037796836742874213 0.009054331548761207 0.01184302368450901 0 0 0
7625 1 3100.0 6.353441238869069e-05 0.006148267984579323 0.005183163515204925 0.01899802689035264 0 0 0
7626 1 3100.0 4e-05 0.0010730977170837002 0.0038380699524303606 0.014304228638682605 0 0 0
7627 1 3100.0 4e-05 0.007981753347296955 0.0007557553770929139 0.0023627322980144315 0 0 0
7628 1 3100.0 3e-05 0.018581385726884368 0.015766492778030456 0.010556387359222577 0 0 0
7629 1 3100.0 7.280072188328825e-05 0.008045821682914487 0.019398074456075706 0.007160649626170097 0 0 0
7630 1 3100.0 0.00012442395262713692 0.011843800449577712 0.0017931854791129308 0.015867340906632707 0 0 0
7631 1 3100.0 1.2321590657781906e-05 0.01236253406941394 0.017226389056185214 0.008508874814889681 0 0 0
7632 1 3100.0 0.00010014241503736643 0.016670884170720976 0.013254838240365385 0.007202599289095933 0 0 0
7633 1 3100.0 2.1693448568107647e-05 9.34065383286566e-05 0.00011636912356075784 0.003618359796186838 0 0 0
7634 1 3100.0 9.233430977598854e-06 0.0019886706678339467 0.007691848365908069 0.017918420484888852 0 0 0
7635 1 3100.0 7.14099026281173e-05 0.016038585941981532 0.013181309423041665 0.01616605578953785 0 0 0
7636 1 3100.0 4e-05 0.012531738988887224 0.013661041854441763 0.01969462647191778 0 0 0
7637 1 3100.0 1.5600604382813873e-05 0.012738111241572578 0.002754279463710551 0.013451135435112336 0 0 0
7638 1 3100.0 7.577847054246981e-05 0.01475427093697874 0.009840500237145859 0.012166343435693217 0 0 0
7639 1 3100.0 8.680944288267066e-05 0.016342287423336568 0.015537411928666554 0.018076859755901637 0 0 0
7640 1 3100.0 7.2157015572473606e-06 0.008614134501870877 0.0023241896106711434 0.01871317499279651 0 0 0
7641 1 3100.0 0.00012466174500652474 0.0009951186498748427 0.01856880587654797 0.00365503967294827 0 0 0
7642 1 3100.0 1.1781026182581718e-05 0.012767981753166216 0.0056019422127709375 0.01923496517049361 0 0 0
7643 1 3100.0 8.883231168366913e-05 0.012847518242244995 0.011124717762677743 0.018087784720704395 0 0 0
7644 1 3100.0 2.0732573496082208e-05 0.019173413427021276 0.0065899884015291135 0.011814376266943292 0 0 0
7645 1 3100.0 0.0001429759311365687 0.017284765686583357 0.009725370935763283 0.007011108251721928 0 0 0
7646 1 3100.0 0.00014255770377194786 0.009405431424042956 0.013300262808189824 0.018518881883940613 0 0 0
7647 1 3100.0 9.768886828499388e-06 0.011496029840844699 0.007394561879745007 0.013224335435336215 0 0 0
7648 1 3100.0 6.91796424497189e-05 0.011208941168309944 0.019142315213248384 0.0019475374593764297 0 0 0
7649 1 3100.0 9.237997500612785e-05 0.018937303366078878 0.009226012068774277 0.0014776806865460317 0 0 0
7650 1 3100.0 4.0676162455239495e-05 0.009317057924208023 0.01319126754767351 0.004767641889603314 0 0 0
7651 1 3100.0 8.292736230496554e-05 0.014531381807988157 0.005830169861430405 0.015513603298119596 0 0 0
7652 1 3100.0 4.1977523362039966e-05 0.014797334131347161 0.012893603821719805 0.013380749490446653 0 0 0
7653 1 3100.0 4.474217266555072e-05 0.014602048791650685 0.006853378485129119 0.015302507747798223 0 0 0
7654 1 3100.0 7.05642778283802e-06 0.018323703452832393 0.0067738383145333975 0.0006301066073202946 0 0 0
7655 1 3100.0 3.857785851927487e-06 0.01448160080948173 0.003534594999842935 0.015964245441821855 0 0 0
7656 1 3100.0 2.1509414274994023e-05 0.016429600010602768 0.018380611284578303 0.010281539502955057 0 0 0
7657 1 3100.0 9.491632942586509e-06 0.011723422897289629 0.01050864193174506 0.017547795845001015 0 0 0
7658 1 3100.0 0.00012728470858866314 0.002215800668088566 0.012486335873598781 0.0070212033269532025 0 0 0
7659 1 3100.0 0.00014771335796339837 0.014836547090391835 0.009091550473665885 0.008798096093033227 0 0 0
7660 1 3100.0 0.00011259783075486368 0.0012402191343894513 0.011325559210835662 0.01671701763502955 0 0 0
7661 1 3100.0 0.00010119141016772254 0.0038468409805810268 0.006782804376786594 0.010841260860879748 0 0 0
7662 1 3100.0 6.623920959170547e-05 0.012238567172806959 0.0016764720979188163 0.006083209827621341 0 0 0
7663 1 3100.0 6.75511130203835e-05 0.0025903707546047 0.009138228311599014 0.0005196400686041147 0 0 0
7664 1 3100.0 1.458199517545936e-05 0.007097855890878813 0.007126404261398594 0.01960120055884409 0 0 0
7665 1 3100.0 4.970315175514357e-05 0.016636374813243374 0.008858838823091702 0.0004933785017670133 0 0 0
7666 1 3100.0 1.163929998372555e-05 0.005560619850846096 0.011029644854578184 0.018583345594418436 0 0 0
7667 1 3100.0 3e-05 0.010385684349497847 0.014905047978962964 0.0056073845549208055 0 0 0
7668 1 3100.0 7.125802052933067e-06 0.013855885972277411 0.00793506260860175 0.012858214655306472 0 0 0
7669 1 3100.0 0.0001329683127193172 0.018539440437794305 0.010475872798893273 0.016092335090912166 0 0 0
7670 1 3100.0 6.291219160795191e-05 0.007244600582301498 0.011645536355690303 0.009190213984026816 0 0 0
7671 1 3100.0 1.8618302149941484e-05 0.018293695723898405 0.0012444474376047967 0.0014493591829192016 0 0 0
7672 1 3100.0 0.00012306128473559536 0.01765655155659802 0.0014959743938158976 0.015745451631739567 0 0 0
7673 1 3100.0 0.0001829042446386275 0.008174996509751021 0.00728490470199822 0.0087045146861976 0 0 0
7674 1 3100.0 1.6970534441316935e-05 0.01922793660441919 0.0017867641664245217 0.017451278039263295 0 0 0
7675 1 3100.0 2.0923013242994347e-05 0.0015858748485246287 0.008339470648335316 0.0030594569867571004 0 0 0
7676 1 3100.0 0.00015822956401423993 0.008468665119854914 0.01776037374848078 0.010117869772638028 0 0 0
7677 1 3100.0 6.143602111223594e-05 0.01961075468305153 0.007111234841353801 0.0003190993297586194 0 0 0
7678 1 3100.0 2.004059915721766e-05 0.011078676483616934 0.013340140660254459 0.01785114870946059 0 0 0
7679 1 3100.0 4e-05 0.0014616580285378895 0.005954896720560257 0.010820713359947614 0 0 0
7680 1 3100.0 0.00011795282075984595 0.006188795207966626 0.015296065367436105 0.004198478749188822 0 0 0
7681 1 3100.0 0.00011203122254241368 0.015458490178169032 0.0043194466391437486 0.0002059623204840851 0 0 0
7682 1 3100.0 3e-05 0.016661686356346312 0.01691886381312488 0.004742351776461513 0 0 0
7683 1 3100.0 0.0002535394225961033 0.012982398376983633 0.010771884402790057 0.007242061979279283 0 0 0
7684 1 3100.0 0.00014503407691386305 0.008987176107540172 0.0055669686354265805 0.001855260832752008 0 0 0
7685 1 3100.0 0.0001017222969912255 0.006976917550220053 0.019648674450732442 0.011317834782211196 0 0 0
7686 1 3100.0 8.430535120056166e-05 0.009349177673162996 0.0072890645112830355 0.0015171814635961524 0 0 0
7687 1 3100.0 6.918944405583457e-05 0.011582183444452155 0.011857818814338821 0.011682380227119362 0 0 0
7688 1 3100.0 1.8305340596626662e-05 0.013137129629777049 0.01052516483195518 0.017560254986659574 0 0 0
7689 1 3100.0 7.643097045139136e-06 0.012515158211570683 0.008500728423459067 0.011605136200565608 0 0 0
7690 1 3100.0 1.527664720238948e-05 0.017620560348039407 0.013435445997416987 0.0061281027005371585 0 0 0
7691 1 3100.0 3e-05 0.012737596958992627 0.0005580149785083542 0.010837508306631057 0 0 0
7692 1 3100.0 7.209731083400644e-05 0.00550901956686241 0.01890694761964673 0.01591836263199923 0 0 0
7693 1 3100.0 3e-05 0.01280505608700473 0.008097651535218027 0.0030553048604586384 0 0 0
7694 1 3100.0 4.7331032050828115e-05 0.012793999000848325 0.017325690913351035 0.017626586570609778 0 0 0
7695 1 3100.0 0.00012663836120674154 0.01891183752386042 0.009712484228459184 0.012056858829076374 0 0 0
7696 1 3100.0 2.593634556428518e-05 0.012268901417717446 0.015359409037351486 0.012851841303294108 0 0 0
7697 1 3100.0 9.087485057834142e-06 0.0148838367007129 0.01368921319406427 0.018292543760384427 0 0 0
7698 1 3100.0 8.755065534217842e-05 0.007174305957890994 0.007634059314507202 0.0061784682240516265 0 0 0
7699 1 3100.0 3e-05 0.0010105379944776577 0.010186095075834008 0.010303976068905655 0 0 0
7700 1 3100.0 1.1197242840963143e-05 0.017982465661475423 0.004200071972654326 0.016540562152492798 0 0 0
7701 1 3100.0 6.166828346191181e-05 0.017739734533703654 0.008618776652902397 0.005261676980445317 0 0 0
7702 1 3100.0 2.739067173225588e-06 0.0013232438126043484 0.007755979479179729 0.013699086199478865 0 0 0
7703 1 3100.0 6.828189074462939e-06 0.011575846701032337 0.0048560003034345675 0.00915354088735458 0 0 0
7704 1 3100.0 6.819337506856521e-05 0.010286904090205586 0.0045842158815236735 0.014895918541652332 0 0 0
7705 1 3100.0 5.597754535461057e-06 0.009303018740951418 0.01471045696535876 0.0008113687438757511 0 0 0
7706 1 3100.0 5.0958794262028435e-06 0.00825843931106469 0.002949973195695722 0.0033351039548929116 0 0 0
7707 1 3100.0 5.469379009644138e-05 0.014378005955695222 0.019518859446846667 0.0013503819463090054 0 0 0
7708 1 3100.0 4.040499788037878e-05 0.0021689361134778103 0.012311021827729546 0.003116973634528495 0 0 0
7709 1 3100.0 0.00014313535937079182 0.007541958730147494 0.018761330804980915 0.00970860529349184 0 0 0
7710 1 3100.0 6.885604654966169e-05 0.017460113014338596 0.019567791713859643 7.781234182481142e-05 0 0 0
7711 2 7870.0 0.0003 0.019304017492007327 0.0090033822502538 0.0067055884893916775 0 0 0
7712 1 3100.0 1.3622586063603537e-05 0.013487378870080304 0.007495836319541995 0.0006176989453477508 0 0 0
7713 1 3100.0 4e-05 0.012214910027991953 0.013845347734851427 0.008600563407585833 0 0 0
7714 1 3100.0 1.2432184333881245e-05 0.005630773997515356 0.014513947262603147 0.019525583426055114 0 0 0
7715 1 3100.0 9.603205136504995e-05 0.007972099060823678 0.007715513109041849 0.007884888521746422 0 0 0
7716 1 3100.0 0.00014308521319608897 0.016183425212971284 0.000617530173245445 0.017841686217948998 0 0 0
7717 1 3100.0 6.456541280251098e-05 0.008982151070790274 0.0017019697000075244 0.01466975724028447 0 0 0
7718 1 3100.0 4e-05 0.004783937876652781 0.001768875432362625 0.005761232070273355 0 0 0
7719 1 3100.0 6.548141423194834e-05 0.004273519897876986 0.006018194400552909 0.012887212854110118 0 0 0
7720 1 3100.0 9.508155654361747e-05 0.010747428267914168 0.011626593962510768 0.0053592596412680065 0 0 0
7721 1 3100.0 4e-05 0.00797224371392528 0.011192222177888005 0.018258263714127924 0 0 0
7722 1 3100.0 9.756594384171486e-06 0.019391319628338607 0.0053383458865806825 0.0017316989574183586 0 0 0
7723 1 3100.0 3.4534980518990927e-06 0.0187192876838667 0.013675765573565216 0.004064255678520886 0 0 0
7724 1 3100.0 3e-05 0.001275969882743119 0.01029326270949536 0.01868077858702201 0 0 0
7725 1 3100.0 1.0863900333900733e-05 0.011783459166458328 0.006124799634395759 0.004601528112304825 0 0 0
7726 1 3100.0 7.123044441501688e-05 0.012873006602713993 0.014232792282775193 0.009923727881193087 0 0 0
7727 1 3100.0 1.3756976847416035e-05 0.01581125720437665 0.006477251625230243 0.01662088961319972 0 0 0
7728 1 3100.0 0.00011256104572358708 0.008068229474356106 0.006087325476221501 0.007560995630033602 0 0 0
7729 1 3100.0 8.227982609339888e-05 0.006652535026727755 0.00315965369028904 0.009109180892428261 0 0 0
7730 1 3100.0 6.690831555612477e-05 0.002918279207890846 0.015071055370900472 0.012337508506986544 0 0 0
7731 1 3100.0 8.86843097171867e-06 0.009923555211334553 0.012417300350568719 0.007453187775325221 0 0 0
7732 1 3100.0 4.73222211800046e-06 0.0059400576459388305 0.0194981187463183 0.010090966501729798 0 0 0
7733 1 3100.0 0.00013738192971656847 0.0012735883317401098 0.006483721934760271 0.01582769819261108 0 0 0
7734 1 3100.0 7.471393648486384e-06 0.0048963895256783066 0.0033375420143628783 0.010307014874204561 0 0 0
7735 1 3100.0 5.161043897348828e-06 0.008343302852160889 0.010132039142828566 0.015212421664999493 0 0 0
7736 1 3100.0 8.262271555458581e-05 0.004634184420582871 0.0013735558623605567 0.012501775405300368 0 0 0
7737 1 3100.0 0.00012979917552209555 0.01513630782022424 0.017457587235131144 0.011357511649944096 0 0 0
7738 1 3100.0 9.489583047130515e-05 0.01976381375280476 0.0038769462050918884 0.015213504127471675 0 0 0
7739 1 3100.0 5.7481073700040503e-05 0.006511191283139483 0.0016137256157071692 0.01623086087230035 0 0 0
7740 1 3100.0 1.0394825291843492e-05 0.011115796467255131 0.017132119413765842 0.015445609000971946 0 0 0
7741 1 3100.0 5.8331566353444964e-05 0.0012140254065674217 0.014570935273986538 0.019246278605224407 0 0 0
7742 1 3100.0 9.529090954805321e-05 0.01003386988968258 0.003224466216976041 0.010348527279651317 0 0 0
7743 1 3100.0 8.909717780838343e-06 0.018225152032070317 0.019566906430235374 0.015279699894315315 0 0 0
7744 1 3100.0 9.558716103936989e-05 0.01690276493746071 0.007489956245744651 0.01801724733205779 0 0 0
7745 1 3100.0 0.00010611419604833228 0.018055577377386948 0.0024246956358200318 0.016152958373546873 0 0 0
7746 1 3100.0 4e-05 0.001888567314369149 0.019532495353213615 0.003428957249828879 0 0 0
7747 1 3100.0 0.00012704274161596223 0.007138041527551853 0.006573514967892305 0.017561506872066698 0 0 0
7748 1 3100.0 8.332542335389228e-06 0.007213843575484365 0.011349617212648764 0.003615378290933758 0 0 0
7749 1 3100.0 5.3464107995198825e-05 0.013230857336306245 0.010897819250698944 0.002302511381463664 0 0 0
7750 1 3100.0 7.123710570476929e-06 0.018476413969998256 0.004693208735594956 0.008224086560435568 0 0 0
7751 1 3100.0 3.844778698141163e-06 0.0106916837889747 0.012735965045972821 0.019752775056126135 0 0 0
7752 1 3100.0 1.0237141228028274e-05 0.016088004464218417 0.010288792864278563 0.005080080329117698 0 0 0
7753 1 3100.0 6.527106514572149e-05 0.01169901862752671 0.004734190892436604 0.007331232152152501 0 0 0
7754 1 3100.0 9.59260272577388e-05 0.01752388025980185 0.007607975117974312 0.0007333510485923266 0 0 0
7755 1 3100.0 0.00011146092966540619 0.01545451602512982 0.01480606406679972 0.01702745340753067 0 0 0
7756 1 3100.0 1.2166419943744977e-05 0.005417536081239446 0.01968088640816558 0.015188039251480216 0 0 0
7757 1 3100.0 6.852861453175993e-05 0.017010618481196952 0.01092959980811471 0.014009794990150558 0 0 0
7758 1 3100.0 0.00010736662039164373 0.003964391783975187 0.00977579867367657 0.0024357440136498214 0 0 0
7759 1 3100.0 9.866091298724764e-06 0.0020356111625810954 0.018439168512718027 0.006660786644806061 0 0 0
7760 1 3100.0 0.00012583211776503818 0.01891286252962028 0.0060048498590486565 0.015823216282498845 0 0 0
7761 1 3100.0 5.914455361462746e-05 0.015676792758806606 0.015833224371412914 0.017874988702063013 0 0 0
7762 1 3100.0 1.4890218237336615e-05 0.0122861851384296 0.01693262927261247 0.010602941843563949 0 0 0
7763 1 3100.0 2.7178992384554296e-05 0.011150835907886798 0.012218725174170207 0.009062978273371396 0 0 0
7764 1 3100.0 7.5123717516504315e-06 0.0011610482769894342 0.01618840774783026 0.01968154606369112 0 0 0
7765 1 3100.0 0.00010185293087317874 0.017644515584046765 0.010385578652237366 0.012538545591622739 0 0 0
7766 1 3100.0 1.9861111550810088e-05 0.009109308052508043 0.0020918182455022367 0.013592290477512436 0 0 0
7767 1 3100.0 2.114409970145652e-05 0.0024435437216198956 0.01423681853070766 0.015348407144140465 0 0 0
7768 1 3100.0 0.00011278291486563149 0.016500006265872672 0.018392907387523815 0.0042492321798051885 0 0 0
7769 1 3100.0 0.00025855974390124665 0.014358231056310991 0.01949003526437998 0.015064594426022806 0 0 0
7770 1 3100.0 8.272227173238566e-06 0.012978359430530622 0.01377437065399804 0.004456285304466773 0 0 0
7771 1 3100.0 5.1147244210144474e-05 0.01971502820927403 0.010524363921150193 0.01232177133669773 0 0 0
7772 1 3100.0 0.00011904282342867093 0.007166325309613506 0.017726569875389165 0.004998138512811475 0 0 0
7773 1 3100.0 0.00014069064196688662 0.011897875828837681 0.005617769883949811 0.012849584352029533 0 0 0
7774 1 3100.0 1.2441102039923235e-05 0.019957816086962187 0.007084564892572859 0.01465789838679208 0 0 0
7775 1 3100.0 0.0001557519213936186 0.004347878113719152 0.005679970790253658 0.009830323255816386 0 0 0
7776 1 3100.0 0.00015642711448369794 0.019471412678796977 0.01544480583888463 0.009577605759908252 0 0 0
7777 1 3100.0 8.934759662398306e-05 0.011932587028432189 0.008937009995180382 0.012618063205746339 0 0 0
7778 1 3100.0 2.408532244719525e-05 0.009741488156941296 0.013393563514749213 0.0011706437424548143 0 0 0
7779 1 3100.0 0.00013334498062812986 0.0009620891484285374 0.008086442511844002 0.011699714047895115 0 0 0
7780 1 3100.0 1.2577242583912994e-05 0.0006019802551746583 0.018773486466415294 0.01639883895633319 0 0 0
7781 1 3100.0 1.4250574284701412e-05 0.011118451622890158 0.013295543177857801 0.01181523553627618 0 0 0
7782 1 3100.0 0.00012423454454000944 0.01644177650934019 0.015678486629017715 0.019809166741486407 0 0 0
7783 1 3100.0 9.577996443274613e-05 0.013127777376102948 0.00011123157744482548 0.0012269745278157042 0 0 0
7784 1 3100.0 7.634588243073985e-05 0.01512860881176188 0.007377441430052791 0.002570917805267986 0 0 0
7785 1 3100.0 0.00012694110772021422 0.0037533154165196015 0.008683728020937231 0.018473914638257496 0 0 0
7786 1 3100.0 0.00011771078992351018 0.009902262895885689 0.006500068673122192 0.008738737546845595 0 0 0
7787 1 3100.0 2.4242145625958113e-05 0.0023652728110559415 0.008099006471108396 0.011999954682830837 0 0 0
7788 1 3100.0 5.199158589657521e-06 0.010431061188227321 0.01712237834984945 0.007425069028495574 0 0 0
7789 1 3100.0 8.889865627224465e-05 0.016321477768267395 0.014524798745461764 0.0035875426509249936 0 0 0
7790 1 3100.0 7.612070966242836e-05 0.002968145003089647 0.008359852454426707 0.013262523119846208 0 0 0
7791 1 3100.0 0.00013291499867614732 0.00019513481178399307 0.0025733583110264316 0.011742869058431787 0 0 0
7792 1 3100.0 1.4481866882528628e-05 0.0029279324103838513 0.013936230473917507 0.009757567337009962 0 0 0
7793 1 3100.0 0.00015546710001460145 0.007920646799819284 0.009209489078223674 0.0008655396570752175 0 0 0
7794 1 3100.0 0.0001002568666760274 0.002977478147599709 0.004123251316586703 0.014292841111274272 0 0 0
7795 1 3100.0 5.2018822564148e-06 0.003802078580802034 0.010104046235257458 0.00952118563924706 0 0 0
7796 1 3100.0 4e-05 0.0151469685595359 0.016711417729805604 0.017940332447167254 0 0 0
7797 1 3100.0 0.00020880060841737739 0.008557207691652994 0.016059010281745875 0.014744958675386697 0 0 0
7798 1 3100.0 1.2718575508550672e-05 0.01184234047376011 0.0027424005522399316 0.01519251595415667 0 0 0
7799 1 3100.0 0.00012229825238797143 0.007980138875813076 0.005828444318512394 0.004651554922086136 0 0 0
7800 1 3100.0 8.282478986259938e-05 0.0028020921007061287 0.010100481828680473 0.019204448674191986 0 0 0
7801 1 3100.0 1.2422856410855099e-05 0.000589211426267608 0.010971946234766558 0.01359394836040502 0 0 0
7802 1 3100.0 8.176972599719671e-05 0.012126030387912117 0.004596257287591051 0.006295029479474402 0 0 0
7803 1 3100.0 0.00016856581723188175 0.01053168741478829 0.010094489211742 0.011093997253263979 0 0 0
7804 1 3100.0 9.919814431663256e-05 0.015967570177833533 0.011736778495208815 0.009260166579727985 0 0 0
7805 1 3100.0 8.661048185092673e-06 0.006802544840056541 0.019289067812837565 0.008275876900128508 0 0 0
7806 1 3100.0 5.440812838465072e-06 0.0006962822810691466 0.016917060616106903 0.00033333628004601616 0 0 0
7807 1 3100.0 0.0001434588685703479 0.00998780327071989 0.011658110496013214 0.01865689460846596 0 0 0
7808 1 3100.0 4.1924634825240444e-06 0.0003339640104842425 0.005130794878032738 0.001316537399198761 0 0 0
7809 1 3100.0 0.00012024226539232601 0.016907644012410183 0.008383245748666893 0.011310721116161769 0 0 0
7810 1 3100.0 2.2561107383275364e-05 0.0025350252762390713 0.008040405565663737 0.009209486070754733 0 0 0
7811 1 3100.0 5.074909018039462e-05 0.017432382781222173 0.003564696714920128 0.01844566390711473 0 0 0
7812 1 3100.0 1.096729941937147e-05 0.007758679674828992 0.010856779199125623 0.013465780038554214 0 0 0
7813 1 3100.0 5.552059123695638e-05 0.010899836269114109 0.011808693304951864 0.007644049644328943 0 0 0
7814 1 3100.0 9.347039407293072e-05 0.003458700424036879 0.012926772644077473 0.014575075520678113 0 0 0
7815 1 3100.0 6.490286561377422e-06 0.003682249572128916 0.015390287871577224 0.01141722547706591 0 0 0
7816 1 3100.0 6.618592041602674e-05 0.01885525828189663 0.015172973573216291 0.0007112293910842997 0 0 0
7817 1 3100.0 4.642019781457161e-06 0.008683189878941306 0.011840167964243082 0.019983175114080782 0 0 0
7818 1 3100.0 1.4720607516316102e-05 0.0028751620163386385 0.010401649413390482 0.012003732874017221 0 0 0
7819 1 3100.0 0.00012582742939428224 0.002029338023456699 0.009059459008580448 0.013788659102657244 0 0 0
7820 1 3100.0 0.00011220944143415096 0.0021742130563251927 0.0016253777892341619 0.008722118620965842 0 0 0
7821 1 3100.0 1.0680911915019794e-05 0.01700234330202216 0.017447128312325467 0.009248392952813019 0 0 0
7822 1 3100.0 9.920201350922187e-05 0.014337351524931942 0.005144498794290406 0.019062403688712596 0 0 0
7823 1 3100.0 9.182519799850123e-06 0.015486032109033099 0.002864034047582256 0.0012065473026912244 0 0 0
7824 1 3100.0 2.6348867101294977e-05 0.012006379411840263 0.002851218990124964 0.0032005047982935713 0 0 0
7825 1 3100.0 1.0409597691331388e-05 0.011162055728998673 0.015577989726799992 0.015185198165472888 0 0 0
7826 1 3100.0 3e-05 0.009793178145879022 0.0037274628905636944 0.01692632173289621 0 0 0
7827 1 3100.0 1.8973327461077513e-05 0.006289013120359523 0.019666397081064133 0.0193731855386322 0 0 0
7828 1 3100.0 0.00016615127320857056 0.00747519677628927 0.01777075680289386 0.01037473549220775 0 0 0
7829 1 3100.0 8.032635843269772e-06 0.010188779562266343 0.015658172176812687 0.01901322837599737 0 0 0
7830 1 3100.0 4.803420281582894e-05 0.005434659676827363 0.0017796703840107866 0.008247501173811428 0 0 0
7831 1 3100.0 0.00017245446926807424 0.008786720093228284 0.018868404623432325 0.007806688065682196 0 0 0
7832 1 3100.0 2.6522775136683953e-05 0.004021289200966275 0.00017733714060415182 0.01573482734801492 0 0 0
7833 1 3100.0 1.9046116617187553e-05 0.009132082812815334 0.003964380037325896 0.00490664688095437 0 0 0
7834 1 3100.0 0.00011045908027531593 0.013126774401531633 0.012721286071953978 0.008283946968007608 0 0 0
7835 1 3100.0 7.899495965667298e-05 0.011932439208674333 0.014567755067662372 0.018072675684671243 0 0 0
7836 1 3100.0 0.00011214488890960184 0.012089180482510457 0.017113089209059185 0.01083640360247748 0 0 0
7837 1 3100.0 0.00010977097989935182 0.013896660478692365 0.0026636489260819037 0.01879710167547427 0 0 0
7838 1 3100.0 1.7590477385750277e-05 0.0036204419914567213 0.015073314860480613 0.005122107033154006 0 0 0
7839 1 3100.0 0.00010319003747574688 0.01922991009447643 0.005970304090254906 0.01690538325883966 0 0 0
7840 1 3100.0 5.524469266279354e-05 0.00943077445384157 0.0008279956847626537 0.009712122660005608 0 0 0
7841 1 3100.0 9.216411790872248e-05 0.014526254910941016 0.01150165749182134 0.01713428333121756 0 0 0
7842 1 3100.0 9.752083126691626e-05 0.008562724726912063 0.009834093695327995 0.0025671232425694196 0 0 0
7843 1 3100.0 1.5571148271705498e-05 0.003907015458246226 0.0028250686020974214 0.013002047418911557 0 0 0
7844 1 3100.0 5.781343130619647e-06 0.003971349550330509 0.0008788272283468543 0.01951321884067776 0 0 0
7845 1 3100.0 3e-05 0.01931715611929485 0.016652503278127322 0.010725357938966621 0 0 0
7846 1 3100.0 0.0001023452843961696 0.009127014974540288 0.010237388843835352 0.0131938909145102 0 0 0
7847 1 3100.0 7.311355748821412e-06 0.011596162401023333 0.016377538801652197 0.007558214685880322 0 0 0
7848 1 3100.0 8.072308996731538e-05 0.013415126133704349 0.0031466661067658178 0.015221439092576257 0 0 0
7849 1 3100.0 1.3530966115752844e-05 0.0028468080931538567 0.01698255959940416 0.016471536754051035 0 0 0
7850 1 3100.0 1.567704390778763e-05 0.009486724182603988 0.014623146430235602 0.00784364321983369 0 0 0
7851 1 3100.0 0.0001161309677314711 0.010056554910183845 0.011052447944218148 0.01776569127591345 0 0 0
7852 1 3100.0 7.087826090944881e-05 0.01400404465694504 0.002311514637198736 0.008283844962359897 0 0 0
7853 1 3100.0 7.794921148561221e-05 0.0026821083453149944 0.01243984924216307 0.0055581685168798805 0 0 0
7854 1 3100.0 9.612016688260778e-06 0.007386109925405543 0.013941397234858157 0.009613489651607791 0 0 0
7855 1 3100.0 0.00011531207005920713 0.003447390031049521 0.008278875897783398 0.006399423457678465 0 0 0
7856 1 3100.0 7.304006358450521e-06 0.008679352050492712 0.015544932035115379 0.006670518344198137 0 0 0
7857 1 3100.0 7.99597434258684e-06 0.002681157319076075 0.006194899473890091 0.006277145805201195 0 0 0
7858 1 3100.0 9.231926361073266e-06 0.016877070370237997 0.013761572603015124 0.009870269721593689 0 0 0
7859 1 3100.0 8.66533141326706e-06 0.009627318060256008 0.011875060038416617 0.0002110999936000274 0 0 0
7860 1 3100.0 0.00010227835452289533 0.013002199698695295 0.004358768407605924 0.004924636793010989 0 0 0
7861 1 3100.0 6.295307142783254e-05 0.006541517098423151 0.014597675275403711 0.0067451210277527495 0 0 0
7862 1 3100.0 9.192520259998686e-05 0.017413394108760628 0.003942040519686489 0.0029450973637960114 0 0 0
7863 1 3100.0 5.487027106609014e-05 0.016566673653112998 0.008793780255644236 0.012934858571772501 0 0 0
7864 1 3100.0 0.00013062787761677742 0.010522398427877834 0.019413943132509343 0.016567354322046403 0 0 0
7865 1 3100.0 9.664024614137134e-06 0.016499236852630085 0.016051589697261105 0.01346724766036957 0 0 0
7866 1 3100.0 7.5395596475462495e-06 0.010726774247492963 0.0015649476361652046 0.009841394662964326 0 0 0
7867 1 3100.0 0.00014550391200040334 0.011479655870782037 0.008664196431603911 0.009358809339561944 0 0 0
7868 1 3100.0 0.0001116165550671822 0.008233673503785982 0.016489021740287435 0.0016930455991642263 0 0 0
7869 1 3100.0 4.7956560609160236e-05 0.0055670317929059675 0.01753603268940285 0.005916205459145233 0 0 0
7870 1 3100.0 6.397848281607956e-06 0.017246278590030095 0.011309648294093576 0.0016504722952770878 0 0 0
7871 1 3100.0 4e-05 0.011425507491483557 0.014315656470542585 0.0012158016364259344 0 0 0
7872 1 3100.0 1.1547527089725214e-05 0.0026810677116975365 0.016005649442121295 0.008036381209750016 0 0 0
7873 1 3100.0 9.037636115365608e-05 0.014952305085658103 0.012894804241206235 0.012727817134972496 0 0 0
7874 1 3100.0 2.036191483978355e-05 0.01567923797314428 0.0194394153460904 0.01590221335134145 0 0 0
7875 1 3100.0 1.9015900104418083e-05 0.014504563617451045 0.010635799219855408 0.002584158912684807 0 0 0
7876 1 3100.0 0.00012123037316459237 0.009084003182747956 0.0051977687925893225 0.002823097337838415 0 0 0
7877 1 3100.0 9.970190937045301e-06 0.003704216270995404 0.0030360701376694584 0.004978989023947491 0 0 0
7878 1 3100.0 0.00015578406105572171 0.015886745178517337 0.018458793984108914 0.003939104341006139 0 0 0
7879 1 3100.0 0.00024769844078614795 0.002297359010276622 0.001088276130034505 0.012747764717434574 0 0 0
7880 1 3100.0 1.2930646435888129e-05 0.019133412895802282 0.003163109624900773 0.004746960841903057 0 0 0
7881 1 3100.0 4.50131241351247e-05 0.006558707066182218 0.004527368466505891 0.019255394720605775 0 0 0
7882 1 3100.0 1.5426753974237524e-05 0.009216852847763858 0.007479180341959038 0.009862767012449009 0 0 0
7883 1 3100.0 6.410938476256394e-05 0.012773552568083366 0.007075471993220448 0.008389863381158524 0 0 0
7884 1 3100.0 0.0001030793756108576 0.01658928798589289 0.012349751393960716 0.019695237819838347 0 0 0
7885 1 3100.0 8.579082265098933e-05 0.008602696677196207 0.01630664786311166 0.01184384287414971 0 0 0
7886 1 3100.0 2.1893335768258492e-05 0.0022234180696675473 0.009380342982759672 0.0007190891835522803 0 0 0
7887 1 3100.0 4.331072116889284e-06 0.01457734880908365 0.017848264707539627 0.01745544084275344 0 0 0
7888 1 3100.0 0.00015997458208976925 0.014554869343486584 0.0029564556827829116 0.008034512108901042 0 0 0
7889 1 3100.0 1.157762713652625e-05 0.005098805649088687 0.010249792546506577 0.01388025174904632 0 0 0
7890 1 3100.0 5.1133083361484565e-05 0.009960802653477579 0.016268246240737638 0.017208857855569824 0 0 0
7891 1 3100.0 4e-05 0.00021942681676572599 0.017325410165035048 0.0036780426434053918 0 0 0
7892 1 3100.0 1.0366513299017735e-05 0.011417300685234994 0.007671504080394981 0.0053851734210626275 0 0 0
7893 1 3100.0 7.57979000659642e-05 0.019503708421398775 0.01110827733841803 0.014685650755564402 0 0 0
7894 1 3100.0 2.0459021294409058e-05 0.014928681218524342 0.012590582590182904 0.019276633469910546 0 0 0
7895 1 3100.0 3e-05 0.006896502626357579 0.009378909415650024 0.0068046902102858724 0 0 0
7896 1 3100.0 8.717154610914495e-06 0.0012562284491583946 0.012033784521660974 0.01672106497944638 0 0 0
7897 1 3100.0 0.00021865299297038276 0.00032494966689506494 0.016343686882986628 0.005036840927148233 0 0 0
7898 1 3100.0 5.665768123588244e-05 0.00026838602444369865 0.005030612500062912 0.015618476479762448 0 0 0
7899 1 3100.0 8.172570314393104e-05 0.0025362195011384087 0.010612395745509949 0.018268681116055122 0 0 0
7900 1 3100.0 5.3151898759547085e-05 0.019269683669354935 0.018691992487623852 0.0012521965750016395 0 0 0
7901 1 3100.0 1.1139126556307283e-05 0.01522964854581086 0.0041705163958308256 0.00020303497408018882 0 0 0
7902 1 3100.0 8.994932063552115e-05 0.012871796523268517 0.0009799371115505762 0.011786558362782796 0 0 0
7903 1 3100.0 0.00015631960643799637 0.0039378342127555695 0.002089955878229612 0.006245183687393969 0 0 0
7904 1 3100.0 0.00011987035660453039 0.0036231547552129503 0.005353951488099582 0.01205069683921228 0 0 0
7905 1 3100.0 5.306271474826101e-06 0.009874228772910696 0.011448829932160643 0.0022606196528969008 0 0 0
7906 1 3100.0 5.817253077813614e-05 0.002680442865540104 0.01988023248383312 0.01310310075282113 0 0 0
7907 1 3100.0 0.000131950256088453 0.013822986868898516 0.003646568964445877 0.0032343002851318134 0 0 0
7908 1 3100.0 0.0001033875260103027 0.007039016719213488 0.0017322062968751582 0.004665104538108081 0 0 0
7909 1 3100.0 0.00011906743244248767 0.010312958904371878 0.011928267068949335 0.017134091725570073 0 0 0
7910 1 3100.0 4.461748241650385e-06 0.014458960966657018 0.008889743924932018 0.005408155548292904 0 0 0
7911 1 3100.0 7.50109342871662e-06 0.01942686244606617 0.011267686440758437 0.005048963798764643 0 0 0
7912 1 3100.0 0.00014278016904442972 0.013524597941385465 0.007170757988366517 0.009494073214964958 0 0 0
7913 1 3100.0 6.842089810848324e-05 0.014481595936839975 0.017627743341327134 0.01577855058081124 0 0 0
7914 1 3100.0 3e-05 0.015625551956110758 0.007225560909061729 0.005727860301682312 0 0 0
7915 1 3100.0 8.625684096666487e-05 0.011024519703588795 0.00345209837817384 0.010315611270655011 0 0 0
7916 1 3100.0 0.00016137966414347214 0.013154645582887701 0.0056386812908386765 0.01818428312557315 0 0 0
7917 1 3100.0 0.00016777569161046546 0.0014140011147649246 0.010401834749506816 0.017220555191046164 0 0 0
7918 1 3100.0 0.00018977953394725178 0.010149126927691524 0.010201455116527848 0.006239006680953089 0 0 0
7919 1 3100.0 9.747271959217004e-06 0.001394395496975529 0.0010093011726460715 0.0014611396352384855 0 0 0
7920 1 3100.0 0.00013786911239626004 0.0058757987649980395 0.008168109807748639 0.017151475542907482 0 0 0
7921 1 3100.0 2.0696423402216936e-05 0.005509175682234591 0.0012290711558279805 0.01913594415465742 0 0 0
7922 1 3100.0 8.443522887817826e-05 0.019194887366523063 0.005086253973277546 0.01660627875554881 0 0 0
7923 1 3100.0 8.26623149923281e-05 0.018655938290443232 0.002152382462700574 0.018919817276986675 0 0 0
7924 1 3100.0 3e-05 0.006608696563921278 0.0016528083747103987 0.005055059379822142 0 0 0
7925 1 3100.0 0.00025505522056697985 0.009035065625656516 0.01678495530299055 0.019405092688298695 0 0 0
7926 2 7870.0 0.0003 0.013117371603535863 0.003110305628123157 0.0037632119444670938 0 0 0
7927 1 3100.0 1.3844149153276525e-05 0.010237610948727346 0.017372214545547073 0.009449608660783383 0 0 0
7928 1 3100.0 9.526928396052603e-06 0.015818170842418877 0.015119177348735597 0.004059769261512375 0 0 0
7929 1 3100.0 7.55328666996779e-05 0.007915904427458568 0.012248061737182904 0.0017047543467768867 0 0 0
7930 1 3100.0 6.841358518749737e-05 0.008318691524583524 0.010771718855503194 0.013876648618236601 0 0 0
7931 1 3100.0 0.00010673690819484052 0.008581285847146613 0.015907353807598296 0.004533949578809147 0 0 0
7932 1 3100.0 0.00016454517298032615 0.011112879049899993 0.013498789297783621 0.0161683743955948 0 0 0
7933 1 3100.0 9.255756091900698e-05 0.010727751130386497 0.0026737678105062932 0.014439185937212034 0 0 0
7934 1 3100.0 8.1797013739267e-05 0.005017035247073423 0.01669208029700699 0.00038189519030167095 0 0 0
7935 1 3100.0 5.432470369676831e-05 0.014828802659729622 0.011123097550641628 0.004546613871071416 0 0 0
7936 1 3100.0 2.2218155965604116e-05 0.011634469265187217 0.017645144555155378 0.017840944897184925 0 0 0
7937 1 3100.0 0.00016969471278604676 0.0034381499443178814 0.018405170874436858 0.006282534406752058 0 0 0
7938 1 3100.0 9.990631146492388e-05 0.018092238154656846 0.011168515308208666 0.008516425681462231 0 0 0
7939 1 3100.0 1.2696637857136091e-05 0.01924166600229831 0.014886427333011001 0.016990845312293862 0 0 0
7940 1 3100.0 0.0001502679929642427 0.0005573111403494841 0.001205873224389982 0.018325442499401958 0 0 0
7941 1 3100.0 5.770370563952635e-05 0.0066594929068789395 0.014724393301576594 0.016606177648195147 0 0 0
7942 2 7870.0 0.0003 0.01113176727216098 0.00036078520177015876 0.008014404440855513 0 0 0
7943 1 3100.0 0.0001163319883871792 0.0072709385977044955 0.014792968497573857 0.00608161568728745 0 0 0
7944 1 3100.0 0.00014295054962424453 0.008376849052670278 0.011292505045885547 0.011411698055373485 0 0 0
7945 1 3100.0 9.70719857329413e-06 0.01952083750953989 0.01465748341382351 0.012751589183358959 0 0 0
7946 1 3100.0 1.4535718275247672e-05 0.014229405814673806 0.016752544592829342 0.014294053789898713 0 0 0
7947 1 3100.0 7.4253141981849834e-06 0.015169490688557911 0.000612499935440251 0.017713835751138725 0 0 0
7948 1 3100.0 5.255309900798495e-05 0.001831282845152931 0.01910389434628511 0.01505206851841506 0 0 0
7949 1 3100.0 0.0001502100214678925 0.004309053753155832 0.00041764951180583445 0.009942998244359139 0 0 0
7950 1 3100.0 4.7287823635886215e-05 0.007659606218454291 0.017457175011645516 0.012308074642209786 0 0 0
7951 1 3100.0 0.00014405519442201777 0.0010690858760124939 0.015047700776132862 0.017229336598230657 0 0 0
7952 1 3100.0 5.068068012561253e-05 0.01268324461547932 0.006051547759520472 0.018790178261523623 0 0 0
7953 1 3100.0 4.934864779286508e-05 0.011754811365961678 0.010576001206464949 0.0028838223876871414 0 0 0
7954 1 3100.0 1.3101897262793931e-05 0.015075225700813304 0.018052303323036152 0.008884464563495547 0 0 0
7955 1 3100.0 8.085959347209129e-05 0.010644164113365776 0.011838153187157993 0.013825229808219522 0 0 0
7956 1 3100.0 7.200597848179633e-05 0.008131282769656658 0.010231072212133957 0.014820581504884862 0 0 0
7957 1 3100.0 0.00019426407538463157 0.015665643059073354 0.01336413991810397 0.01593163605383919 0 0 0
7958 1 3100.0 0.00010029693344103884 0.008697322506944431 0.0005369708530696126 0.016700835159995025 0 0 0
7959 1 3100.0 5.950828173617972e-06 0.014015668325902366 0.012812405472216485 0.012289038403564025 0 0 0
7960 1 3100.0 7.297181162720778e-06 0.012731808251879468 0.013058886270158944 0.017465781398260227 0 0 0
7961 1 3100.0 6.911355349161479e-05 0.01645215537756648 0.019876139573248235 0.019252910073142115 0 0 0
7962 1 3100.0 4.391456313393434e-05 0.012500925302753116 0.017273024528728042 0.018542248906335917 0 0 0
7963 1 3100.0 2.1301454318438364e-05 0.012551525274198746 0.01987911365579556 0.004016414134249151 0 0 0
7964 1 3100.0 6.875233943515125e-05 0.0072089047124328344 0.017158405016631004 0.01095025435726779 0 0 0
7965 1 3100.0 8.335993023376587e-06 0.004600471488021832 0.0006593106841697534 0.009784746847656674 0 0 0
7966 1 3100.0 0.00013540653504390377 0.014666530007730064 0.01604187736162103 0.015225585467008793 0 0 0
7967 1 3100.0 7.023131576160958e-05 0.017581015735306918 0.00905082678105728 0.0016011421765844947 0 0 0
7968 1 3100.0 0.00011359710299615939 0.0010133374727072275 0.016463274617764364 0.01548221466873383 0 0 0
7969 1 3100.0 2.280514597687416e-05 0.009555836128596246 2.336114125528515e-05 0.007196798899861355 0 0 0
7970 1 3100.0 2.4069916983446267e-05 0.000713833463049776 0.01815253757339853 0.014245949232384886 0 0 0
7971 1 3100.0 0.00018631231626422092 0.003313556700682761 0.01145003255052108 0.011843289648898603 0 0 0
7972 1 3100.0 6.743939672415977e-05 0.009508926909352476 0.00897882451468511 0.014072902189396493 0 0 0
7973 1 3100.0 7.672837567305961e-05 0.007134858419838817 0.017955374076874673 0.0014779019984335563 0 0 0
7974 1 3100.0 0.0001631107154801906 0.015022914763917683 0.004712343009771029 0.008433992362112184 0 0 0
7975 1 3100.0 0.00014892198158042083 0.01510004938285963 0.014350514128900104 0.010579481602623021 0 0 0
7976 1 3100.0 1.5120438600422544e-05 0.00919159895480267 0.002001265197612401 0.009032576723793264 0 0 0
7977 1 3100.0 2.2190556288116136e-05 0.003392930855224935 0.014502291625650782 0.013092721077013208 0 0 0
7978 1 3100.0 0.00010677827950145303 0.003085121865651765 0.013284652291130907 0.014209937442365268 0 0 0
7979 1 3100.0 6.453002232049554e-05 0.014559912189134277 0.017254350439551026 0.005324187193727263 0 0 0
7980 1 3100.0 6.678303967053728e-05 0.018750474775522694 0.016526899144430434 0.017243726972536174 0 0 0
7981 1 3100.0 1.6095132919317226e-05 0.01318821078922995 0.008382010595654032 0.019722937754937855 0 0 0
7982 1 3100.0 4e-05 0.00039014610616649466 0.010155313344468658 0.013735755520231412 0 0 0
7983 1 3100.0 1.696239840038277e-05 0.012736923794652109 0.00277377258958024 0.015610604327159055 0 0 0
7984 1 3100.0 1.0812407497975824e-05 0.0019883889920569186 0.010929230679195972 0.007268607318185728 0 0 0
7985 1 3100.0 5.744773123529934e-05 0.016615421205216786 0.011484038605928542 0.0030668622451708863 0 0 0
7986 1 3100.0 8.590694409959867e-05 0.006602375815351059 0.016774647486445173 0.017020500932815114 0 0 0
7987 1 3100.0 1.2994898980334686e-05 0.013603375813262675 0.01003509399075591 0.005918938507807532 0 0 0
7988 1 3100.0 1.4966683664242967e-05 0.005825573525245114 0.0041918580174886725 0.003183120960336208 0 0 0
7989 1 3100.0 5.8873050636660646e-05 0.006964525229072913 0.002669605944478887 0.016067152020767313 0 0 0
7990 1 3100.0 4e-05 0.018039829215251345 0.002450120780138606 0.013638592668897942 0 0 0
7991 1 3100.0 0.0001146065675321381 0.01506005000908851 0.003035796480085768 0.0025763623472716 0 0 0
7992 1 3100.0 2.424998893285524e-05 0.004048035394261935 0.0031116165997428294 0.013412822803221243 0 0 0
7993 1 3100.0 5.921923652742923e-05 0.016468378864308544 0.013610201251540749 0.01457693103508361 0 0 0
7994 1 3100.0 1.8765858157249706e-05 0.01081127945995186 0.018021472361049864 0.017266901490649356 0 0 0
7995 1 3100.0 0.00015290900426769317 0.002740864639967781 0.0006246139313740306 0.009060487675312682 0 0 0
7996 1 3100.0 5.808172027183014e-06 0.012380626854213057 0.010155038708051206 0.015877732381413764 0 0 0
7997 1 3100.0 3.2424921382178445e-06 0.005428634865267153 0.013827551462444328 0.008891519980464203 0 0 0
7998 1 3100.0 1.1707760030123846e-05 0.015455844444671261 0.011402319634790716 0.012200926515923086 0 0 0
7999 1 3100.0 9.201122695829735e-05 0.013864564888344318 0.015275765667180292 0.01104797705713843 0 0 0
8000 1 3100.0 7.838832038367728e-05 0.018737327086300087 0.018716473913427435 0.0033356818430026534 0 0 0
8001 2 7870.0 0.0007801492239785401 0.01615097715210676 0.0022964489577935506 0.007272294760193693 0 0 0
8002 2 7870.0 0.0009382320769486605 0.016775211329929034 0.002883370952636833 0.014499372329029583 0 0 0
8003 2 7870.0 0.000528397389796536 0.018880024983114616 0.000980766283540149 0.007051532722357936 0 0 0
8004 2 7870.0 0.0007169867691325714 0.003945215055788478 0.015458748942287237 0.00418218361767868 0 0 0
8005 2 7870.0 0.0005513937868521404 0.004968023419398836 0.007144233893460717 0.01680097663477902 0 0 0
8006 2 7870.0 0.0008679372260656533 0.008838860623789644 0.018888812332224583 0.0013310644094588248 0 0 0
8007 2 7870.0 0.0008765430746867757 0.00406512216533764 0.013100219120431375 0.013478207315487219 0 0 0
8008 2 7870.0 0.0008047283353709363 0.012943065334415185 0.008503045790345807 0.010124957399271911 0 0 0
8009 2 7870.0 0.0005320641820753989 0.01618086931335021 0.015031620760449704 0.009208586578384503 0 0 0
8010 2 7870.0 0.0007948944222285779 0.00199286418670539 0.011184544792888652 0.010464813292067632 0 0 0
8011 2 7870.0 0.0007252730426911566 0.0013551221147268225 0.015065099150182882 0.009593567138598554 0 0 0
8012 2 7870.0 0.0005011526301689859 0.0043276876831712325 0.01917943857409478 0.01857902859956973 0 0 0
8013 2 7870.0 0.0007293423392802082 0.011012953965541415 0.008889450686739497 0.008421645784390884 0 0 0
8014 2 7870.0 0.0008234653473037449 0.009459393452675503 0.014945468280907178 0.0163514253867422 0 0 0
8015 2 7870.0 0.0007080280480455474 0.012856393581807998 0.0058316623159219965 0.007838382925137137 0 0 0
8016 2 7870.0 0.0008471893349558538 0.014728015730650159 0.003219857546014965 0.006916192876240014 0 0 0
8017 2 7870.0 0.0009055036558804394 0.012180561146376116 0.013728723550577521 0.006729188513758438 0 0 0
8018 2 7870.0 0.0007807402755268574 0.006301393152408352 0.015087742245371868 0.015711361733273015 0 0 0
8019 2 7870.0 0.0005690890297198035 0.017387801373783873 0.006551766634860692 0.01733250240020497 0 0 0
8020 2 7870.0 0.0009086506701707479 0.014293418031252858 0.018090072228457977 0.013755847935537064 0 0 0
8021 2 7870.0 0.0007208584503283764 0.008804027254957823 0.011363336438286999 0.016234274779764225 0 0 0
8022 2 7870.0 0.0008214219926034463 0.01651483486085389 0.005136573995876571 0.01477162153871027 0 0 0
8023 2 7870.0 0.0005388020618500023 0.008801341671696843 0.012716071940647018 0.013855404364113814 0 0 0
8024 2 7870.0 0.0008726047112520309 0.01817827074364177 0.01431187947435894 0.0013704804841950893 0 0 0
8025 2 7870.0 0.0007788645457541632 0.014766855999897488 0.015820352815211134 0.008005341283463346 0 0 0
8026 2 7870.0 0.0006029682184562889 0.004624853743912375 0.008776844033617785 0.003367968271633783 0 0 0
8027 2 7870.0 0.0005175367644265988 0.0007091767184726084 0.015032202953266214 0.004247428020429852 0 0 0
8028 2 7870.0 0.0009593764243361398 0.012046571310139044 0.009365072143332166 0.0015189158763720186 0 0 0
8029 2 7870.0 0.0009119248018786315 0.004959563893922607 0.016501926526475856 0.0026230549629521695 0 0 0
8030 2 7870.0 0.0005365906263376094 0.005906224565774089 0.00585311753529481 0.00271835129070693 0 0 0
8031 2 7870.0 0.0008288348495052679 0.009313057207783228 0.003781718243176469 0.01913178362919564 0 0 0
8032 2 7870.0 0.0008435380246177426 0.012115775668718258 0.002124732182277817 0.004912500585157114 0 0 0
8033 2 7870.0 0.00051846707629879 0.007615945536175412 0.0045921088613296406 0.005903854777332974 0 0 0
8034 2 7870.0 0.0007967940815786515 0.015908675589188237 0.015440751367096767 0.0018855414083402897 0 0 0
8035 2 7870.0 0.0006756197964827847 0.010752600419733619 0.006858152210528494 0.016352250750588722 0 0 0
8036 2 7870.0 0.0006896101353981125 0.0020274678036099492 0.002994916082022624 0.016812432872646655 0 0 0
8037 2 7870.0 0.000581240865099461 0.015884369012686916 0.014649561340210672 0.007846245344307912 0 0 0
8038 2 7870.0 0.0008032849541669694 0.005863557780820639 0.014952539339317969 0.011617103731918113 0 0 0
8039 2 7870.0 0.0006812396684813528 0.0009662103739505258 0.01457113889849716 0.013430201787783392 0 0 0
8040 2 7870.0 0.0008622362229613097 0.009399328995403088 0.0020824601017367115 0.003634912508759357 0 0 0
8041 2 7870.0 0.0007319377386442163 0.0033250688903695884 0.006795333019805477 0.017901295184468587 0 0 0
8042 2 7870.0 0.0008356010305002346 0.010632551132637327 0.007873071101439992 0.0013623601830460184 0 0 0
8043 2 7870.0 0.0007868263607318156 0.01699337713829545 0.008758556792964466 0.014771499663938323 0 0 0
8044 2 7870.0 0.0005683792285172941 0.0036206884825194688 0.005993798891371454 0.00612668504035749 0 0 0
8045 2 7870.0 0.0005077332459778129 0.009372784850059558 0.004504933936079706 0.01055858613632454 0 0 0
8046 2 7870.0 0.0007145188069203437 0.0013277061212876732 0.005539032934443647 0.01610852213717226 0 0 0
8047 2 7870.0 0.0008393275959746649 0.013998588476162178 0.00702505753205937 0.0016824841638964077 0 0 0
8048 2 7870.0 0.0007642167743527018 0.017283788557542264 0.014866988733503844 0.004312650624196562 0 0 0
8049 2 7870.0 0.0007633184417462093 0.003847262198482476 0.008624749037352827 0.007534346614266007 0 0 0
8050 2 7870.0 0.0006622546963491777 0.006449257747102512 0.005292179107858555 0.01569195365865412 0 0 0
8051 2 7870.0 0.000519012994649949 0.007297675042145461 0.005059747066533834 0.0010281814834037692 0 0 0
8052 2 7870.0 0.0008320428281207567 0.014410131472961735 0.017912217203108236 0.018452893760947015 0 0 0
8053 2 7870.0 0.0007475605767259287 0.01035669646019416 0.006696261741227523 0.011574636110144346 0 0 0
8054 2 7870.0 0.0005265632826845692 0.0022893025040617116 0.01634666290772257 0.017914679219443688 0 0 0
8055 2 7870.0 0.0007307307587167686 0.0033095440657207667 0.011425520549818392 0.015290747721502004 0 0 0
